%chk=beta-d-glucose-opt.chk
# opt freq=raman b3lyp/6-31+g(2df,p) scrf=(smd,solvent=water)
geom=connectivity

beta-d-glucose raman optimized

0 1
 O                 -0.66790000    1.15870000    0.25700000
 O                 -0.88700000   -2.44830000   -0.33880000
 O                  1.86230000   -2.06930000    0.46960000
 O                  2.86090000    0.54140000   -0.46190000
 O                  1.12220000    2.65520000    0.25740000
 O                 -3.37420000    0.97170000   -0.18650000
 C                 -0.37270000   -1.24700000    0.23000000
 C                  1.08560000   -1.07090000   -0.19400000
 C                 -1.22110000   -0.06210000   -0.23750000
 C                  1.60820000    0.31510000    0.18390000
 C                  0.63880000    1.41320000   -0.25340000
 C                 -2.65500000   -0.15770000    0.27400000
 H                 -0.42480000   -1.35220000    1.32060000
 H                  1.20660000   -1.24870000   -1.26970000
 H                 -1.25480000   -0.00980000   -1.33430000
 H                  1.79520000    0.35980000    1.26360000
 H                  0.59670000    1.51410000   -1.34400000
 H                 -2.69160000   -0.15350000    1.36850000
 H                 -3.15640000   -1.05810000   -0.09220000
 H                 -0.85140000   -2.36150000   -1.30660000
 H                  1.49730000   -2.93560000    0.22000000
 H                  2.71650000    0.49890000   -1.42270000
 H                  1.48760000    2.50330000    1.14480000
 H                 -2.91920000    1.76520000    0.14400000

 1 9 1.0 11 1.0
 2 7 1.0 20 1.0
 3 8 1.0 21 1.0
 4 10 1.0 22 1.0
 5 11 1.0 23 1.0
 6 12 1.0 24 1.0
 7 8 1.0 9 1.0 13 1.0
 8 10 1.0 14 1.0
 9 12 1.0 15 1.0
 10 11 1.0 16 1.0
 11 17 1.0
 12 18 1.0 19 1.0
 13
 14
 15
 16
 17
 18
 19
 20
 21
 22
 23
 24

