# freq=raman b3lyp/6-31+g(2d,p) geom=connectivity

290 9086/9086.com

0 1
 O                  7.80000000    7.48800000   12.27300000
 C                  8.43600000    7.82200000   13.51600000
 C                  7.95000000    9.15800000   14.05300000
 O                  8.19700000   10.14700000   13.04200000
 H                  7.77100000    9.84000000   12.19000000
 C                  8.43800000    9.60600000   15.42100000
 O                  7.68100000   10.71200000   15.93200000
 H                  8.08500000   11.03500000   16.78800000
 C                  8.67800000    5.44100000   14.24000000
 O                  8.22500000    4.74300000   13.07100000
 H                  8.20400000    3.78600000   13.35800000
 C                  8.12700000    6.81000000   14.60700000
 O                  8.79400000    7.18900000   15.81900000
 C                  8.31100000    8.42400000   16.36900000
 O                  8.90000000    8.68500000   17.65100000
 C                  8.32800000    8.22300000   18.88400000
 C                  8.90900000    6.90500000   19.37100000
 O                  9.08300000    5.93100000   18.33200000
 H                  9.53200000    6.45200000   17.60600000
 C                  8.27000000    6.55600000   20.70600000
 O                  8.68100000    5.24600000   21.12100000
 H                  8.57600000    5.29300000   22.11500000
 C                  7.98100000   10.65400000   19.59200000
 O                  8.45100000   11.39700000   18.45800000
 H                  8.38800000   12.35700000   18.73000000
 C                  8.60900000    9.30700000   19.91100000
 O                  8.24800000    8.88300000   21.23400000
 C                  8.63200000    7.60000000   21.75000000
 O                  7.83800000    7.40200000   22.92900000
 H                  8.46967580    7.30950370   11.60871588
 H                  8.49510517    4.79838513   15.07576050
 H                  9.73850990    5.54799206   14.14634392
 H                  7.07099234    6.75179487   14.76935761
 H                  9.49473542    7.86683953   13.36778149
 H                  6.88658040    9.07320453   14.13575555
 H                  9.46737239    9.88931315   15.35010478
 H                  7.26360246    8.28786751   16.54024933
 H                  8.10416698   11.27567290   20.45412104
 H                  6.93209525   10.49269203   19.45533047
 H                  9.66845294    9.45682439   19.91448257
 H                  7.27002426    8.11782431   18.76347858
 H                  9.91517190    7.15204805   19.63836747
 H                  7.20710437    6.55442608   20.58291305
 H                  8.41492041    7.27491858   23.68571207
 H                  9.67695526    7.57311581   21.97857328

 1 2 1.0 30 1.0
 2 3 1.0 12 1.0 34 1.0
 3 4 1.0 6 1.0 35 1.0
 4 5 1.0
 5
 6 7 1.0 14 1.0 36 1.0
 7 8 1.0
 8
 9 10 1.0 12 1.0 31 1.0 32 1.0
 10 11 1.0
 11
 12 13 1.0 33 1.0
 13 14 1.0
 14 15 1.0 37 1.0
 15 16 1.0
 16 17 1.0 26 1.0 41 1.0
 17 18 1.0 20 1.0 42 1.0
 18 19 1.0
 19
 20 21 1.0 28 1.0 43 1.0
 21 22 1.0
 22
 23 24 1.0 26 1.0 38 1.0 39 1.0
 24 25 1.0
 25
 26 27 1.0 40 1.0
 27 28 1.0
 28 29 1.0 45 1.0
 29 44 1.0
 30
 31
 32
 33
 34
 35
 36
 37
 38
 39
 40
 41
 42
 43
 44
 45

