# freq=raman b3lyp/6-31+g(2d,p) geom=connectivity
320 10000.com
320 10000.com
C           8.33500         7.97900         2.87600
0 1
O           7.91600        10.42700         2.40200
H           7.83100         9.95400         1.52500
C           8.32800         9.64300         4.71300
O           7.48900        10.66400         5.27300
H           7.90700        10.88600         6.15400
C           8.68300         5.54500         3.64100
O           8.01200         4.89000         2.55500
H           8.30700         3.93400         2.53000
C           8.20300         6.94600         3.98300
O           8.96700         7.36700         5.12200
C           8.29200         8.49100         5.70500
O           8.96200         8.93400         6.89400
C           8.45200         8.46300         8.15000
C           8.98300         7.15500         8.71200
O           8.70600         6.11100         7.76700
H           8.73200         6.56900         6.87900
C           8.60700         6.67100        10.10300
O           9.26000         5.46400        10.52500
H           8.73900         5.13200        11.31100
C           8.14200        10.81500         8.98200
O           8.33300        11.45500         7.71200
H           8.35100        12.45400         7.76300
C           8.72000         9.44100         9.28200
O           8.29300         9.04100        10.59300
C           8.85800         7.81300        11.07400
O           8.00800         7.57400        12.20500
C           8.51200         7.99300        13.48200
C           7.82200         9.22000        14.05600
O           7.74600        10.33100        13.15100
H           7.36500         9.83300        12.37200
C           8.39100         9.63400        15.40300
O           7.73500        10.80000        15.92100
H           8.14700        10.94000        16.82100
C           8.62100         5.55000        14.32500
O           8.15300         4.81600        13.18400
H           8.20200         3.82000        13.25500
C           8.04400         6.94800        14.48100
O           8.61500         7.27200        15.75700
C           8.22200         8.49600        16.39600
O           9.07200         8.74700        17.52500
C           8.45400         8.40300        18.77300
C           8.89700         7.05100        19.30800
O           8.72000         6.00600        18.34000
H           8.99200         6.42900        17.47600
C           8.19700         6.69400        20.60900
O           8.77300         5.44400        21.01700
H           8.28800         5.12400        21.83100
C           8.44800        10.84800        19.73400
O           8.40400        11.47400        18.44300
H           8.25700        12.45400        18.57900
C           8.85100         9.38800        19.86000
O           8.27900         9.11300        21.14700
C           8.57200         7.78300        21.60000
O           7.71200         7.59000        22.73200
C           8.09100         7.83000        24.09500
C           7.67900         9.22600        24.53300
O           8.10800        10.13800        23.51100
H           8.11700         9.67000        22.62700
C           7.98700         9.64000        25.96300
O           7.59600        10.96200        26.36300
H           8.03000        10.99700        27.26300
C           7.85900         5.41500        24.89400
O           7.71300         4.88200        23.57000
H           8.03200         3.93500        23.59100
C           7.39400         6.85600        25.03000
O           7.69600         7.19900        26.39000
C           7.45000         8.53400        26.85600
O           8.26400         8.58300        28.03600
C           7.74200         8.20800        29.32000
C           8.31700         6.84000        29.65000
O           7.68400         5.85600        28.82000
H           7.64300         6.23600        27.89600
C           8.02800         6.38200        31.07000
O           8.97400         5.40900        31.53700
H           8.70300         5.20900        32.47900
C           7.83500        10.64400        30.15200
O           8.14200        11.32400        28.92600
H           8.01200        12.28600        29.16800
C           8.26600         9.19900        30.34600
O           7.83900         8.80000        31.65600
C           8.41500         7.52900        31.99000
O           7.66500         7.49100        33.21200
C           8.37200         7.75700        34.43300
C           7.92000         9.12300        34.92300
O           8.15100        10.14300        33.94100
H           7.71600         9.76800        33.12200
C           8.37000         9.54600        36.31200
O           7.61900        10.70000        36.71600
H           7.82700        10.97400        37.65500
C           8.48700         5.29900        35.24400
O           8.10500         4.70800        33.99400
H           8.16300         3.71900        34.13400
C           8.06600         6.73400        35.51500
O           8.69700         7.11300        36.74600
C           8.19200         8.36000        37.24600
O           8.92500         8.63600        38.44800
C           8.42700         8.40500        39.77400
C           9.00200         7.09600        40.29000
O           8.75200         6.00500        39.39200
H           8.97200         6.19200        38.43400
C           8.36000         6.69200        -0.45200
O           8.79300         5.43400         0.08500
H           8.46900         5.31600         1.02300
C           8.09100        10.75700        40.48000
O           8.22400        11.54600        39.28900
H           8.22600        12.49700        39.59900
C           8.75600         9.44600        -1.23400
O           8.25800         9.13700         0.07600
C           8.69400         7.83500         0.49200
O           7.86300         7.49300         1.61100
C           4.07600         4.50200         0.40000
C           4.33400         3.10600        43.02400
O           4.10300         2.10300        42.02400
H           4.30100         2.53400        41.14400
C           3.65000         2.85500         2.30000
O           3.89100         1.54800         2.84100
H           3.84400         1.46300         3.83600
C           4.28700         6.94000         1.16100
O           4.96100         7.64300         0.10800
H           4.58900         8.57000         0.05200
C           4.56100         5.47600         1.46100
O           3.95400         5.21300         2.73400
C           4.18700         3.90000         3.26400
O           3.38800         3.89500         4.45600
C           4.17300         4.23400         5.60900
C           4.05900         5.68900         6.03500
O           4.35000         6.61400         4.97800
H           3.87300         6.27900         4.16600
C           4.75100         5.90200         7.37100
O           4.53100         7.18500         7.97600
H           4.94600         7.11400         8.88400
C           3.98900         1.85100         6.45400
O           3.60300         0.95800         5.39800
H           3.88000         0.01300         5.57200
C           3.58900         3.30300         6.65900
O           4.27500         3.53600         7.89800
C           4.15900         4.89500         8.34300
O           4.96300         4.85500         9.53200
C           4.15100         4.57400        10.68100
C           4.44900         3.15200        11.12700
O           4.02400         2.16300        10.17800
H           4.38700         2.58200         9.34600
C           3.67000         2.83700        12.39400
O           3.99800         1.58300        13.01000
H           3.61400         1.42300        13.91900
C           4.13700         6.99200        11.52000
O           4.85100         7.68400        10.48600
H           4.59000         8.64000        10.36000
C           4.50000         5.54200        11.79900
O           3.71800         5.20500        12.95400
C           3.97400         3.88400        13.45300
O           3.31900         3.72400        14.72000
C           4.04700         3.84400        15.95100
C           3.75000         5.22300        16.51500
O           3.95000         6.32100        15.61300
H           3.35500         6.05600        14.85400
C           4.28500         5.47600        17.91500
O           3.66300         6.70100        18.33000
H           3.74900         6.72700        19.32600
C           4.03900         1.41900        16.62900
O           3.69500         0.68300        15.44600
H           4.08400        -0.23800        15.42700
C           3.66800         2.83800        17.02600
O           4.31900         3.19000        18.25500
C           3.93100         4.39700        18.92600
O           4.66900         4.43300        20.15600
C           3.93900         4.22700        21.37400
C           4.27800         2.82200        21.84400
O           3.81100         1.85300        20.89400
H           4.06800         2.23800        20.00700
C           3.73700         2.48200        23.22400
O           4.09400         1.23300        23.83400
H           3.91600         1.21100        24.81800
C           3.83200         6.70300        22.27300
O           3.92400         7.31200        20.97700
H           4.03400         8.30400        21.03700
C           4.26200         5.25500        22.44500
O           3.81700         4.86500        23.75300
C           4.24700         3.56000        24.16600
O           3.55800         3.42500        25.41700
C           4.27000         3.83800        26.59300
C           3.91600         5.25000        27.02900
O           4.35200         6.15000        26.00000
H           4.34100         5.63800        25.14200
C           4.37300         5.61300        28.43300
O           3.96200         6.92800        28.83300
H           4.24500         7.04800        29.78500
C           4.31300         1.57900        27.51700
O           4.12000         0.84300        26.30000
H           4.05100        -0.11400        26.58500
C           3.70900         2.96200        27.70100
O           4.32600         3.23000        28.96900
C           3.96400         4.54100        29.42900
O           4.78300         4.46700        30.60600
C           4.03200         4.28600        31.81500
C           4.29700         2.91600        32.41800
O           3.73300         1.95000        31.52000
H           4.06200         2.02500        30.57900
C           3.53500         2.70400        33.71600
O           3.86100         1.43800        34.30700
H           3.64800         1.50300        35.28200
C           4.02200         6.72400        32.53600
O           4.44000         7.35300        31.31500
H           4.30900         8.33500        31.44500
C           4.43300         5.30000        32.87400
O           3.95700         5.05900        34.20600
C           4.13100         3.71600        34.68000
O           3.60300         3.69300        36.01500
C           4.23600         3.84400        37.29400
C           4.00400         5.28600        37.71400
O           4.34300         6.29700        36.75400
H           3.93500         6.04800        35.87600
C           4.68100         5.57000        39.04500
O           4.58700         6.94000        39.46000
H           5.01200         6.93300        40.36600
C           3.95800         1.44400        38.17000
O           3.31300         0.98500        36.97300
H           3.41200        -0.00300        36.85400
C           3.82200         2.93400        38.43900
O           4.31000         3.26100        39.74800
C           4.05800         4.63600        40.07000
O           4.84300         4.74100        41.26700
C           7.96600        16.08100         2.87500
C           7.30100        17.33500         3.41800
O           7.35500        18.45900         2.52800
H           6.97700        18.24600         1.62700
C           7.85100        17.67200         4.79400
O           7.19000        18.79500         5.39500
H           7.54800        19.10500         6.27600
C           8.09800        13.61800         3.61700
O           7.52500        12.95300         2.48100
H           7.65100        11.96600         2.57400
C           7.63200        15.03200         3.92300
O           8.24300        15.30200         5.19300
C           7.71900        16.51000         5.76500
O           8.65400        16.57000         6.85100
C           8.09000        16.33700         8.15000
C           8.83300        15.18000         8.79800
O           8.86500        14.13800         7.81200
H           9.07400        14.52400         6.91400
C           8.45500        14.78200        10.21600
O           9.19200        13.74500        10.88000
H           8.65700        13.31700        11.60800
C           8.04100        18.90300         8.85700
O           8.30700        19.54800         7.60300
H           7.86600        20.42300         7.80400
C           8.42600        17.45700         9.12200
O           7.81900        17.16200        10.38800
C           8.34900        16.02500        11.08400
O           7.45400        15.78200        12.17900
C           8.13000        16.03600        13.41900
C           7.60000        17.36600        13.92800
O           7.81800        18.41200        12.97100
H           7.29600        18.03500        12.20600
C           8.24200        17.78500        15.24100
O           7.80400        19.01600        15.83400
H           8.32400        19.15800        16.67600
C           8.15600        13.60400        14.29200
O           7.75200        12.86800        13.12800
H           7.76600        11.87100        13.20300
C           7.73100        15.04800        14.50300
O           8.21200        15.45300        15.79300
C           7.74600        16.74000        16.22600
O           8.33300        16.93500        17.52100
C           7.91300        16.45800        18.80700
C           8.38500        15.08300        19.25100
O           8.34300        14.00700        18.30100
H           8.50200        14.38600        17.38900
C           7.72800        14.74500        20.57900
O           8.28800        13.55800        21.15800
H           7.94500        13.36700        22.07700
C           7.84400        18.90400        19.56100
O           8.27900        19.63800        18.40700
H           7.93900        20.57800        18.40000
C           8.37100        17.50100        19.81300
O           7.86400        17.17400        21.11600
C           8.07100        15.83300        21.58300
O           7.37400        15.72900        22.83400
C           8.02400        16.06900        24.06700
C           7.56300        17.46400        24.45800
O           7.83300        18.49500        23.49800
H           7.58500        17.97000        22.68400
C           8.05200        17.77000        25.86400
O           7.35400        18.92500        26.35200
H           7.75600        19.20700        27.22400
C           8.19100        13.64400        24.81400
O           7.77900        12.87100        23.67800
H           8.02700        11.91600        23.84000
C           7.68900        15.04200        25.13600
O           8.27600        15.42900        26.38700
C           7.82000        16.68700        26.90500
O           8.52800        16.91800        28.13200
C           7.88400        16.48300        29.33900
C           8.37800        15.09900        29.72800
O           7.90900        14.16900        28.74100
H           8.24700        14.56500        27.88700
C           7.98600        14.78700        31.16300
O           8.49900        13.51100        31.57100
H           8.12900        13.38300        32.49100
C           7.71700        18.82400        30.16500
O           8.07600        19.61200        29.02100
H           8.22000        20.54200        29.35800
C           8.31900        17.45300        30.42500
O           7.84000        17.07700        31.72400
C           8.34700        15.82600        32.21200
O           7.54000        15.64900        33.38500
C           8.14600        15.98000        34.64300
C           7.40900        17.21100        35.14400
O           7.21800        18.21600        34.13700
H           7.02100        17.77200        33.26300
C           8.04700        17.82000        36.38200
O           7.62300        19.08800        36.90100
H           7.96300        19.18700        37.83600
C           8.35000        13.51200        35.43600
O           7.93200        12.90400        34.20500
H           7.70100        11.94500        34.36800
C           7.86800        14.92900        35.70500
O           8.36900        15.40900        36.96100
C           7.84700        16.68200        37.37000
O           8.54300        17.05300        38.56900
C           7.96400        16.63600        39.81400
C           8.38900        15.25100        40.27400
O           7.98700        14.20800        39.37400
H           8.18000        14.39300        38.41100
C           7.97200        14.77400        -0.40700
O           8.81700        13.70000         0.03200
H           8.53000        13.25700         0.88100
C           7.66400        18.97700        40.64600
O           8.36400        19.67800        39.60800
H           8.21700        20.66600        39.57800
C           8.17700        17.59400        -1.08900
O           7.55600        17.19700         0.14200
C           8.14900        15.95200         0.53800
O           7.25600        15.82300         1.65400
C           3.99400        12.61600         0.09400
C           4.29200        11.21400        42.68300
O           4.10300        10.11000        41.78600
H           4.32000        10.53700        40.90800
C           3.47100        10.98000         1.88400
O           3.60700         9.63400         2.36300
H           3.24700         9.57400         3.29400
C           3.75300        14.96700         1.04800
O           4.21200        15.80000        -0.02700
H           3.85700        16.73200         0.05200
C           4.27000        13.55300         1.25800
O           3.57000        13.19100         2.45800
C           3.99400        11.91600         2.96200
O           3.30300        11.87800         4.21900
C           3.90200        12.25700         5.46700
C           3.49100        13.62100         5.99700
O           3.98200        14.61400         5.08400
H           3.81100        14.30700         4.14800
C           3.92900        13.88300         7.42900
O           3.38800        15.09100         7.98400
H           3.65800        15.16100         8.94400
C           4.01800         9.82400         6.18000
O           3.44200         9.27500         4.98600
H           3.76700         8.33000         4.96800
C           3.52500        11.22300         6.51500
O           4.02900        11.44900         7.83900
C           3.63100        12.72300         8.36500
O           4.50900        12.81500         9.49700
C           3.83500        12.59000        10.74400
C           4.19400        11.18500        11.19900
O           4.23300        10.22900        10.12900
H           4.19100        10.71900         9.25800
C           3.55200        10.87200        12.54000
O           4.04800         9.62100        13.03900
H           4.08500         9.61800        14.03800
C           3.98100        14.96300        11.57300
O           4.41000        15.68800        10.41100
H           4.23200        16.66600        10.51900
C           4.23900        13.49900        11.89200
O           3.47500        13.25200        13.08200
C           3.83000        11.95200        13.57400
O           3.38800        11.71500        14.91800
C           4.04500        12.08600        16.13900
C           3.64500        13.44300        16.69300
O           3.78800        14.54300        15.78300
H           3.51700        14.19600        14.88500
C           4.08300        13.76900        18.11200
O           3.28200        14.88300        18.53300
H           3.41500        14.97400        19.52000
C           4.29800         9.65800        16.86100
O           3.92600         8.88300        15.71200
H           4.16400         7.94600        15.96500
C           3.66400        11.01000        17.14300
O           4.22000        11.32600        18.42800
C           3.70600        12.55900        18.95200
O           4.43500        12.75600        20.17200
C           3.84300        12.37400        21.42200
C           4.36300        11.02700        21.89500
O           4.14800        10.01400        20.90200
H           4.43600        10.50800        20.08100
C           3.78100        10.64400        23.24600
O           4.18300         9.38000        23.79300
H           3.80000         9.32500        24.71600
C           3.53200        14.71700        22.30500
O           4.03300        15.52700        21.23100
H           4.15700        16.48400        21.49200
C           4.22400        13.37800        22.49800
O           3.49600        13.05400        23.69200
C           3.93700        11.79700        24.22500
O           3.22800        11.63800        25.46300
C           4.04400        11.91000        26.61200
C           3.73800        13.30700        27.12600
O           3.96300        14.28100        26.09700
H           3.80600        13.83400        25.21600
C           4.40800        13.66300        28.44300
O           3.99600        14.94600        28.93600
H           3.95000        14.97800        29.93400
C           3.89100         9.48700        27.47100
O           3.53400         8.82600        26.24800
H           3.72000         7.85500        26.40000
C           3.58200        10.95700        27.70100
O           4.14700        11.25900        28.98600
C           3.86600        12.60600        29.39200
O           4.67500        12.73700        30.57000
C           4.08300        12.36000        31.82100
C           4.64600        11.02100        32.26800
O           4.33200         9.97900        31.33300
H           4.50200        10.20000        30.37200
C           3.87500        10.65600        33.52700
O           4.44500         9.46900        34.09700
H           4.19200         9.42800        35.06300
C           3.75600        14.90700        32.58700
O           4.02100        15.85500        31.54200
H           3.72300        16.78700        31.74700
C           4.40500        13.53900        32.72500
O           3.91800        13.09100        33.99800
C           4.13400        11.77400        34.52400
O           3.49900        11.75500        35.81100
C           4.19700        12.12900        37.00800
C           3.95000        13.56200        37.45000
O           4.35000        14.46800        36.41100
H           3.89300        14.20100        35.56200
C           4.58200        13.75900        38.81800
O           4.31500        15.07900        39.31500
H           4.67000        15.33900        40.21300
C           4.03300         9.67200        37.96200
O           3.78400         8.92200        36.76500
H           3.89500         7.93800        36.90400
C           3.77100        11.16300        38.10200
O           4.30600        11.48000        39.39500
C           3.99800        12.80600        39.84800
O           4.82000        12.92600        41.01800
C           7.63600        24.41600         3.19300
C           7.18600        25.75900         3.74300
O           7.51200        26.69100         2.70200
H           7.31600        26.22800         1.83800
C           7.81500        26.07500         5.09100
O           7.23100        27.30900         5.53600
H           7.67100        27.60500         6.38300
C           7.92600        21.96200         4.02100
O           7.40500        21.24300         2.89400
H           7.16500        20.31500         3.18000
C           7.23800        23.31000         4.15600
O           7.80400        23.64200         5.43200
C           7.54000        24.91700         6.03600
O           8.42900        25.13500         7.14100
C           7.85700        24.65900         8.36800
C           8.42400        23.31100         8.78200
O           8.20800        22.29300         7.79400
H           8.23000        22.76300         6.91100
C           8.03600        22.93200        10.20200
O           8.86200        21.88900        10.74000
H           8.66100        21.61500        11.68100
C           7.89100        27.10300         9.24800
O           8.42300        27.71800         8.06600
H           8.24300        28.69600         8.17200
C           8.22700        25.63700         9.47100
O           7.65400        25.25900        10.73100
C           8.22800        24.04000        11.22500
O           7.49000        23.77400        12.42700
C           8.05300        24.15100        13.69200
C           7.35600        25.42600        14.13700
O           7.70500        26.45800        13.20400
H           7.43600        26.17400        12.28400
C           7.85000        25.87800        15.50200
O           7.28100        27.12600        15.92300
H           7.55400        27.42600        16.83700
C           8.80500        21.86000        14.35900
O           8.24000        21.17100        13.23400
H           8.31900        20.19200        13.42100
C           7.91100        23.03700        14.71600
O           8.46200        23.56400        15.93200
C           7.77800        24.70600        16.46700
O           8.47900        24.90700        17.70300
C           7.89300        24.52500        18.95600
C           8.34600        23.16600        19.46500
O           7.84300        22.18700        18.54400
H           8.50000        22.29700        17.79800
C           7.95000        22.79600        20.88500
O           8.66100        21.66000        21.39800
H           8.38200        21.29200        22.28500
C           7.85000        26.97700        19.79700
O           7.95000        27.70100        18.56200
H           7.70100        28.66400        18.66800
C           8.26100        25.53200        20.03300
O           7.80600        25.17600        21.34700
C           8.23600        23.91300        21.87500
O           7.30000        23.79200        22.95600
C           7.91600        24.11500        24.21100
C           7.40100        25.46600        24.68200
O           7.67200        26.44500        23.66900
H           7.54200        26.03800        22.76500
C           7.87000        25.84600        26.07700
O           7.37000        27.10500        26.54900
H           7.56900        27.20700        27.52400
C           8.01800        21.81200        25.03400
O           7.56800        21.08100        23.88400
H           7.77500        20.10500        23.95200
C           7.47300        23.19700        25.33900
O           7.88800        23.56800        26.66200
C           7.49200        24.85200        27.16400
O           8.31200        25.16100        28.30100
C           7.77200        24.58500        29.49900
C           8.43600        23.29200        29.94600
O           8.24400        22.33400        28.89500
H           8.45900        22.75400        28.01300
C           7.81100        22.80400        31.24300
O           8.38400        21.55400        31.65200
H           7.97200        21.28500        32.52300
C           7.41900        26.96900        30.22200
O           7.89100        27.84200        29.18600
H           7.51000        28.76700        29.19400
C           8.05500        25.63200        30.56400
O           7.53300        25.16100        31.81500
C           8.15100        23.92700        32.20900
O           7.41600        23.78000        33.43200
C           8.00400        24.24400        34.65600
C           7.45600        25.61300        35.02500
O           7.94100        26.58700        34.09000
H           7.75400        26.29200        33.15300
C           7.83100        25.95500        36.45800
O           7.09700        27.02800        37.06600
H           7.46700        27.15900        37.98600
C           7.87500        21.79500        35.49600
O           7.42600        20.94900        34.42600
H           7.52000        20.00900        34.75400
C           7.58600        23.26700        35.74200
O           8.10900        23.52700        37.05200
C           7.62300        24.81800        37.44500
O           8.26000        25.19300        38.67500
C           7.71800        24.78300        39.93900
C           8.23500        23.44800        40.45100
O           8.02600        22.37100        39.52700
H           8.28200        22.59000        38.58500
C           7.67200        23.07900        -0.24700
O           8.26100        21.89600         0.31300
H           7.74000        21.73800         1.15200
C           7.29300        27.13800        40.65600
O           7.66300        27.83200        39.45500
H           7.40200        28.77700        39.65200
C           7.98000        25.83800        -1.06300
O           7.52400        25.46400         0.24500
C           7.93900        24.18900         0.75600
O           7.09700        24.05900         1.91100
C           3.44900        20.67300         0.29300
C           3.64400        19.27800        42.94300
O           3.08900        18.36200        41.98700
H           3.19000        18.80800        41.09800
C           3.15500        19.01000         2.29600
O           3.70800        17.82600         2.88900
H           3.41500        17.80600         3.84500
C           3.75000        23.09700         1.18100
O           4.07500        23.78600        -0.03500
H           3.92100        24.77100         0.03900
C           3.91000        21.60100         1.40400
O           3.23000        21.37900         2.64800
C           3.64100        20.12300         3.20900
O           2.91900        20.06300         4.44800
C           3.61400        20.39200         5.66000
C           3.23900        21.75000         6.22900