# freq=raman b3lyp/6-31+g(d,p) geom=connectivity

320 7000.com

0 1
O           7.71000         7.63100        12.38000
C           8.24000         7.96400        13.67200
C           7.82900         9.36000        14.11000
O           8.34800        10.33200        13.19100
H           8.01600        10.06000        12.28800
C           8.34400         9.74500        15.48700
O           7.90000        11.04800        15.89200
H           8.20100        11.25400        16.82400
C           8.13500         5.54400        14.59000
O           7.58700         4.93500        13.41200
H           7.86700         3.97700        13.35400
C           7.86400         7.02400        14.80500
O           8.48600         7.39200        16.04500
C           8.03600         8.67000        16.51700
O           8.77100         8.91600        17.72400
C           8.00400         8.56200        18.88400
C           8.42300         7.17800        19.35200
O           7.94800         6.21400        18.40100
H           8.36700         6.45300        17.52600
C           7.84200         6.88100        20.72500
O           8.49000         5.66200        21.11700
H           8.45900         5.44300        22.09200
C           7.88800        10.98300        19.49400
O           8.56800        11.62600        18.40600
H           8.46000        12.61900        18.37500
C           8.30500         9.59600        19.95600
O           7.61700         9.24900        21.16600
C           8.13000         8.01700        21.69300
O           7.36100         7.83100        22.89000

