# freq=raman b3lyp/6-31+g(2df,p) geom=connectivity

280 10000.com

0 1
 O                  7.41700000    7.60400000   12.29800000
 C                  7.96300000    7.90800000   13.59000000
 C                  7.36000000    9.23700000   14.01500000
 O                  7.48400000   10.27800000   13.03400000
 H                  7.13100000    9.92100000   12.16900000
 C                  7.76300000    9.62600000   15.42800000
 O                  7.03500000   10.72800000   15.98800000
 H                  7.46700000   10.88100000   16.87700000
 C                  8.32200000    5.48600000   14.17200000
 O                  7.59300000    4.76800000   13.16500000
 H                  7.94000000    3.83000000   13.15300000
 C                  7.70400000    6.80600000   14.60400000
 O                  8.32000000    7.18500000   15.84400000
 C                  7.69300000    8.38900000   16.30900000
 O                  8.50400000    8.56000000   17.48000000
 C                  7.90900000    8.27200000   18.75300000
 C                  8.49700000    6.95600000   19.23600000
 O                  8.33000000    5.91100000   18.26800000
 H                  8.45100000    6.22200000   17.32500000
 C                  8.04200000    6.50200000   20.61400000
 O                  8.68100000    5.32400000   21.12700000
 H                  8.34300000    4.98400000   22.00400000
 C                  7.66400000   10.61900000   19.41600000
 O                  8.11400000   11.31600000   18.24600000
 H                  8.07100000   12.30700000   18.37300000
 C                  8.16600000    9.26000000   19.87900000
 O                  7.67700000    8.88800000   21.17600000
 C                  8.27300000    7.64800000   21.58500000
 O                  7.55300000    7.51600000   22.81900000
 H                  8.13230110    7.45735322   11.67475121
 H                  9.02098625    8.03262393   13.48983030
 H                  6.30820996    9.05018243   14.07613019
 H                  6.65044542    6.68385712   14.74543499
 H                  8.40887262    4.85849491   15.03431694
 H                  9.30499943    5.68268105   13.79792956
 H                  6.67960137    8.19177497   16.59011474
 H                  8.79015115    9.92301533   15.38747344
 H                  7.82781927   11.28670279   20.23590013
 H                  6.60425604   10.51848498   19.30765118
 H                  9.22868909    9.34307489   19.97222269
 H                  6.85291926    8.15668147   18.62534775
 H                  8.17530031    7.43825043   23.54584065
 H                  9.31808783    7.77904355   21.77346489
 H                  6.98989046    6.31264567   20.56806040
 H                  9.55151296    7.11913121   19.31531348

 1 2 1.0 30 1.0
 2 3 1.0 12 1.0 31 1.0
 3 4 1.0 6 1.0 32 1.0
 4 5 1.0
 5
 6 7 1.0 14 1.0 37 1.0
 7 8 1.0
 8
 9 10 1.0 12 1.0 34 1.0 35 1.0
 10 11 1.0
 11
 12 13 1.0 33 1.0
 13 14 1.0
 14 15 1.0 36 1.0
 15 16 1.0
 16 17 1.0 26 1.0 41 1.0
 17 18 1.0 20 1.0 45 1.0
 18 19 1.0
 19
 20 21 1.0 28 1.0 44 1.0
 21 22 1.0
 22
 23 24 1.0 26 1.0 38 1.0 39 1.0
 24 25 1.0
 25
 26 27 1.0 40 1.0
 27 28 1.0
 28 29 1.0 43 1.0
 29 42 1.0
 30
 31
 32
 33
 34
 35
 36
 37
 38
 39
 40
 41
 42
 43
 44
 45

