# freq=raman b3lyp/6-31+g(d,p) geom=connectivity

300 7000.com

0 1
O           7.81500         7.73700        22.67200
C           8.47800         7.93800        23.92800
C           8.06900         9.27300        24.52900
O           8.38300        10.36700        23.65400
H           7.95200        10.01400        22.82400
C           8.63300         9.60300        25.90100
O           8.36800        10.90600        26.44000
H           8.58800        10.96300        27.41400
C           8.29100         5.56500        24.60300
O           7.60400         4.83600        23.57600
H           7.81600         3.86300        23.66700
C           7.98000         6.99600        25.01100
O           8.48100         7.20700        26.33900
C           8.16700         8.51100        26.85100
O           8.88000         8.61400        28.09200
C           8.26900         8.30000        29.35200
C           8.89400         6.99900        29.82900
O           8.74300         5.96500        28.84600
H           8.93100         6.28700        27.91800
C           8.33100         6.58100        31.17700
O           8.96200         5.43900        31.77600
H           8.50700         5.38900        32.66500
C           7.87500        10.72300        29.96500
O           8.51700        11.42100        28.88700
H           8.10600        12.32400        29.01200
C           8.49600         9.39900        30.37900
O           7.83100         8.92500        31.55900
C           8.44300         7.75900        32.13100
O           7.63500         7.51600        33.29200

