# freq=raman b3lyp/6-31+g(2d,p) geom=connectivity

493 7124/7124.com

0 1
C           8.20900         8.14200         2.84600
C           7.83900         9.51100         3.39300
O           8.11000        10.59000         2.48600
H           7.73600        10.28900         1.60900
C           8.38700         9.80400         4.78000
O           7.77500        10.99000         5.30700
H           8.11600        11.16800         6.23000
C           8.49300         5.80200         3.64400
O           7.99500         5.00700         2.55800
H           7.98800         4.03800         2.80200
C           7.94000         7.17500         3.98900
O           8.60200         7.46800         5.22800
C           8.08500         8.69200         5.77100
O           8.76600         8.90500         7.01600
C           8.03600         8.53900         8.19600
C           8.49000         7.14700         8.60400
O           8.20000         6.09100         7.67600
H           8.55700         6.41200         6.79800
C           8.05800         6.79800        10.01900
O           8.91600         5.74800        10.48700
H           8.63600         5.34600        11.35900
C           7.99400        11.04200         8.97000
O           8.53700        11.74700         7.84500
H           8.28700        12.71100         7.93400
C           8.38300         9.59600         9.23200
O           7.74000         9.19800        10.45100
C           8.34800         7.98600        10.92200
O           7.61500         7.75000        12.13200
C           8.28000         8.05000        13.36700
C           7.77500         9.40200        13.84500
O           8.09000        10.44400        12.91000
H           7.79100        10.18200        11.99200
C           8.16700         9.65800        15.29100
O           7.19600        10.57900        15.80900
H           7.72900        11.14600        16.43700
C           8.54400         5.60800        14.14200
O           8.18600         4.71500        13.07700
H           8.24400         3.74800        13.32400
C           7.92500         6.97500        14.38100
O           8.43700         7.33500        15.67300
C           7.87400         8.52000        16.25500
O           8.65400         8.68900        17.44800
C           8.16600         8.40200        18.76600
C           8.64600         7.06700        19.31000
O           8.47800         6.11500        18.24900
H           8.65500         6.64400        17.41900
C           8.05300         6.69500        20.65900
O           8.49700         5.43700        21.18700
H           8.23400         5.36900        22.15000
C           7.99600        10.86000        19.39500
O           8.27300        11.58300        18.18700
H           8.22200        12.57200        18.33000
C           8.37700         9.45700        19.84000
O           7.71900         9.12500        21.07100
C           8.22400         7.88500        21.58800
O           7.46900         7.72800        22.79900
C           8.08900         8.11900        24.03200
C           7.49700         9.41400        24.56500
O           7.61800        10.40000        23.52900
H           7.49000         9.86300        22.69500
C           8.13600         9.80500        25.88800
O           7.41500        10.91500        26.44100
H           7.81100        11.23200        27.30300
C           8.68700         5.80400        24.78100
O           8.22800         5.02100        23.67000
H           8.25300         4.03200        23.81600
C           7.97300         7.09500        25.14900
O           8.56800         7.45900        26.40300
C           7.93900         8.66200        26.86900
O           8.75100         8.96400        28.01300
C           8.20800         8.47500        29.24800
C           8.74600         7.14900        29.75900
O           8.32700         6.12800        28.84100
H           8.38400         6.45700        27.89800
C           8.38400         6.72500        31.17300
O           9.05700         5.59300        31.74300
H           8.52600         5.23400        32.51000
C           8.22500        10.94900        30.22300
O           8.77100        11.68300        29.11700
H           8.51900        12.64000        29.25900
C           8.53800         9.46700        30.35200
O           7.90400         9.12800        31.59400
C           8.44900         7.91000        32.12200
O           7.55600         7.65000        33.21500
C           8.07800         7.93000        34.52200
C           7.44700         9.21900        35.02400
O           7.38200        10.24900        34.02800
H           7.29800         9.69900        33.19600
C           8.03300         9.74300        36.32500
O           7.42500        10.96400        36.77100
H           7.98000        11.31800        37.52400
C           8.25500         5.52200        35.21900
O           7.82300         4.85900        34.02200
H           7.81600         3.87800        34.21600
C           7.79000         6.91400        35.61500
O           8.44000         7.33100        36.82400
C           7.87200         8.56900        37.27600
O           8.67400         8.83200        38.43600
C           8.06900         8.51000        39.69700
C           8.29200         7.11800        40.26600
O           7.68200         6.16500        39.38300
H           7.96500         6.39700        38.45300
C           7.67400         6.82400        -0.44300
O           8.36500         5.70200         0.12600
H           7.97700         5.42200         1.00400
C           8.08000        10.95400        40.44000
O           8.73700        11.69100        39.39900
H           8.54800        12.66700        39.50400
C           8.52300         9.53100        -1.34900
O           7.87400         9.21300        -0.11000
C           8.21700         7.93400         0.44200
O           7.45100         7.88700         1.65400
C           3.98600         4.30000         0.24200
C           4.40900         2.96600        42.91400
O           4.21200         2.00100        41.87000
H           4.31100         2.50100        41.00900
C           3.70300         2.77100         2.18100
O           3.98800         1.46600         2.70800
H           3.80700         1.34000         3.68300
C           3.87200         6.79100         0.95400
O           4.23200         7.51200        -0.23300
H           3.84700         8.43100        -0.15000
C           4.26900         5.36300         1.29100
O           3.67900         5.10300         2.57300
C           4.14400         3.86800         3.13600
O           3.51800         3.70700         4.41700
C           4.32500         4.04800         5.55300
C           4.02800         5.45600         6.04300
O           4.33500         6.48200         5.08800
H           3.88100         6.32400         4.21100
C           4.41300         5.85300         7.45900
O           3.79700         7.08700         7.85400
H           3.95500         7.30400         8.81800
C           4.34300         1.57900         6.50600
O           4.09500         0.83600         5.30300
H           4.41100        -0.09900         5.46800
C           4.00900         3.05400         6.65900
O           4.58900         3.47800         7.90100
C           4.06700         4.71600         8.40600
O           4.79100         4.79400         9.64300
C           4.04600         4.45700        10.82200
C           4.26200         3.00300        11.21100
O           3.94600         1.99700        10.23800
H           4.25400         2.38200         9.36800
C           3.70100         2.71500        12.59400
O           4.08300         1.39200        12.99700
H           3.88100         1.26200        13.96800
C           4.09000         6.81100        11.67800
O           4.37700         7.59700        10.51300
H           4.33600         8.57200        10.73300
C           4.59900         5.39400        11.88400
O           4.07100         5.07900        13.18000
C           4.27500         3.71700        13.58300
O           3.56100         3.64600        14.82600
C           4.25200         3.93900        16.04900
C           3.89600         5.31700        16.58300
O           4.06400         6.28300        15.53500
H           3.96300         5.76400        14.68600
C           4.51100         5.67700        17.92600
O           3.90700         6.90000        18.36900
H           4.27100         7.20200        19.25000
C           4.29000         1.52800        16.74900
O           3.81500         0.83600        15.58500
H           3.95600        -0.13400        15.78600
C           3.84000         2.93400        17.11200
O           4.30700         3.19000        18.44500
C           4.14700         4.54900        18.87700
O           4.81500         4.70300        20.13800
C           4.08400         4.35300        21.32200
C           4.61200         3.00000        21.77200
O           4.24500         1.90300        20.92200
H           4.34300         2.29900        20.00900
C           3.94400         2.73000        23.11000
O           4.21500         1.43700        23.67100
H           3.88000         1.24200        24.59300
C           3.81600         6.82900        21.96700
O           4.60300         7.63300        21.07600
H           4.39000         8.60500        21.17600
C           4.30600         5.44400        22.35700
O           3.65900         5.06300        23.58000
C           4.22300         3.85000        24.09900
O           3.57200         3.61400        25.35600
C           4.22300         3.92900        26.59600
C           4.04100         5.34700        27.11200
O           4.66500         6.31100        26.25100
H           4.34000         6.10400        25.32800
C           4.63900         5.57700        28.49100
O           4.22000         6.87800        28.92800
H           4.58700         7.02200        29.84700
C           4.03900         1.57800        27.28600
O           3.57000         0.94000        26.08900
H           3.78300        -0.00300        26.34500
C           3.67100         3.00300        27.66700
O           4.11100         3.23100        29.01400
C           3.93900         4.59700        29.41800
O           4.61900         4.61700        30.68100
C           3.97500         4.33900        31.93300
C           4.48500         2.97300        32.36300
O           4.25500         1.99200        31.34100
H           4.27800         2.43700        30.44500
C           3.86400         2.51900        33.67400
O           4.59300         1.41700        34.23200
H           4.09900         1.04900        35.02000
C           3.71200         6.68700        32.77400
O           4.14200         7.51200        31.68100
H           3.65100         8.38200        31.63600
C           4.19300         5.28300        33.10400
O           3.42200         4.84700        34.23400
C           3.88300         3.59100        34.75200
O           3.12800         3.31100        35.94000
C           3.84100         3.72900        37.11300
C           3.52000         5.14200        37.57000
O           3.63300         6.18300        36.58900
H           3.27100         5.80600        35.73700
C           4.13900         5.63600        38.86700
O           3.84900         6.96600        39.32200
H           4.12800         7.06800        40.27700
C           4.21100         1.44400        38.07700
O           4.05100         0.74400        36.83500
H           4.16700        -0.24700        36.90600
C           3.58800         2.81200        38.29900
O           4.12900         3.29000        39.53900
C           3.74200         4.61700        39.92200
O           4.62400         4.58900        41.05400
C           8.09300        16.39200         2.88900
C           7.32600        17.60100         3.40000
O           7.54400        18.69400         2.49600
H           7.43700        18.32300         1.57300
C           7.74100        18.12500         4.76500
O           6.88900        19.11000         5.36800
H           7.26100        19.47900         6.22000
C           8.66300        14.06300         3.62200
O           8.15600        13.23800         2.56200
H           8.22600        12.24900         2.69200
C           7.94900        15.35300         3.98900
O           8.58200        15.85500         5.17500
C           7.82500        16.94600         5.71900
O           8.44200        17.24800         6.97900
C           7.89700        16.79000         8.22500
C           8.47300        15.43500         8.60200
O           8.30200        14.46100         7.56300
H           8.64800        14.93300         6.75200
C           7.86400        14.96400         9.91300
O           8.35800        13.73200        10.45900
H           7.94100        13.54500        11.34800
C           7.74900        19.14200         9.01900
O           7.81400        19.86100         7.77900
H           7.83200        20.83500         8.00800
C           8.36200        17.77700         9.28300
O           7.90400        17.32600        10.56600
C           8.29000        15.99600        10.94400
O           7.67700        15.69000        12.20500
C           8.12700        16.14500        13.48900
C           7.47200        17.45000        13.91100
O           7.87600        18.51500        13.03900
H           7.69800        18.08800        12.15200
C           7.82800        17.87700        15.32600
O           7.13600        19.06500        15.74000
H           7.53900        19.35800        16.60800
C           8.31500        13.69200        14.20500
O           7.72500        13.08400        13.04700
H           7.93600        12.11000        13.12300
C           7.74000        15.07000        14.49100
O           8.07500        15.47500        15.82600
C           7.48100        16.71400        16.24100
O           8.08000        16.98400        17.51700
C           7.48100        16.62200        18.76900
C           8.09300        15.31700        19.25000
O           7.87800        14.24600        18.31900
H           8.16800        14.56700        17.41700
C           7.68700        14.89500        20.65300
O           8.27700        13.70700        21.19900
H           8.02100        13.53700        22.15100
C           7.58100        19.15800        19.58900
O           7.97000        19.82800        18.38100
H           7.83700        20.81300        18.49000
C           7.85600        17.67800        19.79700
O           7.30400        17.25200        21.05100
C           7.89800        16.06600        21.59900
O           7.17000        15.83200        22.81300
C           7.80600        16.18200        24.05100
C           7.33000        17.57000        24.44800
O           7.87000        18.52900        23.52800
H           7.62400        18.17400        22.62600
C           7.79500        17.84900        25.86800
O           6.93400        18.84800        26.43600
H           7.27700        19.10300        27.34000
C           8.06100        13.73900        24.88400
O           7.80300        13.15600        23.59800
H           7.69800        12.17100        23.73300
C           7.54200        15.14600        25.13100
O           8.04600        15.42300        26.44600
C           7.50900        16.70000        26.82100
O           8.19200        16.99500        28.04900
C           7.62700        16.66000        29.32500
C           8.30400        15.37000        29.75600
O           7.93900        14.29200        28.88200
H           8.04300        14.66000        27.95800
C           7.92400        14.92000        31.15700
O           8.55400        13.72100        31.63000
H           8.25200        13.56700        32.57000
C           7.51900        19.13100        30.04100
O           8.00400        19.69000        28.81100
H           7.96800        20.67900        28.95400
C           7.96800        17.71500        30.36500
O           7.68400        17.31900        31.71400
C           8.20300        16.04900        32.13500
O           7.46300        15.80900        33.34000
C           7.99400        16.31000        34.57600
C           7.35800        17.63100        34.97800
O           7.69900        18.70200        34.08500
H           7.75600        18.43600        33.12300
C           7.78300        18.03500        36.38000
O           7.22700        19.17600        37.04900
H           7.68000        19.40900        37.91000
C           8.00300        13.78800        35.28200
O           7.37100        13.11300        34.18400
H           7.76800        12.19700        34.12100
C           7.64700        15.23300        35.59100
O           8.18600        15.64300        36.85600
C           7.68500        16.88500        37.37000
O           8.64100        17.02200        38.43200
C           8.16000        16.77300        39.76100
C           8.69500        15.41700        40.19100
O           8.44000        14.31500        39.30800
H           8.22800        14.67100        38.39800
C           8.28500        15.09600        -0.44800
O           8.96000        13.94100         0.07000
H           8.43700        13.71300         0.89100
C           8.16200        19.21000        40.66200
O           8.58500        19.91600        39.48600
H           8.50800        20.90800        39.58600
C           8.58500        17.76300        -1.24300
O           7.98900        17.44400         0.02300
C           8.49200        16.21300         0.56200
O           7.57200        15.94200         1.63000
C           4.07100        12.45800         0.25800
C           4.34100        11.03000        42.78100
O           3.73000        10.15100        41.82500
H           4.02500        10.41700        40.90700
C           3.92900        10.81300         2.16000
O           4.27800         9.56000         2.76500
H           3.72900         9.58500         3.60100
C           4.07700        14.90900         1.05300
O           4.25100        15.68900        -0.13900
H           3.98400        16.61500         0.12800
C           4.58200        13.48900         1.25100
O           4.05300        13.22200         2.55800
C           4.37900        11.93000         3.08800
O           3.61000        11.95300         4.29900
C           4.22500        12.19400         5.57300
C           3.86400        13.57900         6.08500
O           4.25600        14.59100         5.14600
H           3.88300        14.34200         4.25200
C           4.45400        13.92500         7.44200
O           3.84600        15.17300         7.80400
H           4.02500        15.21300         8.78700
C           4.39100         9.86500         6.29700
O           3.65500         9.00800         5.41200
H           3.82300         8.04500         5.62000
C           3.78800        11.21500         6.65100
O           4.39300        11.58300         7.89900
C           4.01100        12.86000         8.43200
O           4.66300        12.95000         9.70700
C           3.89600        12.66800        10.88600
C           4.27900        11.28500        11.38800
O           3.91500        10.26500        10.44600
H           4.08000        10.65600         9.54000
C           3.67300        10.97000        12.74600
O           4.36500         9.79600        13.19500
H           3.93700         9.47500        14.04000
C           3.78600        15.03200        11.62300
O           4.09900        15.80800        10.45700
H           3.74800        16.74200        10.50800
C           4.31800        13.65000        11.96600
O           3.67700        13.35500        13.21600
C           4.11800        12.07400        13.69000
O           3.32800        11.90900        14.87700
C           4.01000        12.23700        16.09700
C           3.63900        13.62200        16.60300
O           3.90100        14.70300        15.69600
H           3.53000        14.48900        14.79200
C           4.31500        13.87900        17.93900
O           3.89700        15.14700        18.46700
H           4.15500        15.22500        19.43000
C           4.18800         9.77300        16.87800
O           3.67900         9.01500        15.77100
H           3.72700         8.05500        16.04500
C           3.67300        11.18000        17.13500
O           4.25600        11.52700        18.40000
C           3.78500        12.79900        18.86900
O           4.28700        12.90400        20.20900
C           3.45300        12.52600        21.31500
C           3.82400        11.15000        21.84300
O           3.58900        10.23300        20.76500
H           4.10300        10.70500        20.04900
C           3.22800        10.79600        23.19600
O           3.57700         9.48100        23.65300
H           3.41800         9.39700        24.63700
C           3.58600        14.96900        22.16800
O           4.09700        15.68900        21.03700
H           3.97100        16.64400        21.30500
C           3.88500        13.49700        22.40200
O           3.29200        13.11900        23.65300
C           3.71600        11.85100        24.17500
O           2.94700        11.68600        25.37500
C           3.62500        11.98400        26.60400
C           3.25700        13.37100        27.10500
O           3.47200        14.39800        26.12600
H           3.37900        14.03200        25.20000
C           4.05800        13.62700        28.37100
O           3.95400        14.96300        28.88400
H           4.42900        14.98400        29.76400
C           3.74500         9.57400        27.39800
O           3.13200         8.81100        26.34800
H           3.62500         7.95100        26.47900
C           3.29900        10.99300        27.70900
O           3.88000        11.23100        29.00000
C           3.60400        12.58700        29.38200
O           4.33300        12.55600        30.61800
C           3.59600        12.32200        31.82600
C           3.71700        10.92000        32.40100
O           3.61300         9.96100        31.33900
H           3.98000        10.32900        30.48500
C           2.90400        10.65600        33.65800
O           2.70600         9.31600        34.13100
H           2.92000         9.30300        35.10800
C           4.09700        14.69400        32.79000
O           4.57400        15.37800        31.62200
H           4.27200        16.31400        31.80200
C           4.16800        13.18300        32.94000
O           3.50600        12.96000        34.19400
C           3.62300        11.59300        34.61500
O           2.99500        11.67600        35.90200
C           3.88600        11.98200        36.98500
C           3.44000        13.30300        37.59000
O           3.71500        14.29700        36.59200
H           3.47100        13.92900        35.69400
C           4.09700        13.69900        38.90200
O           3.62300        14.93800        39.44900
H           4.05300        15.17400        40.32100
C           4.05700         9.57800        37.87700
O           3.56600         9.03200        36.64400
H           3.78100         8.05700        36.70400
C           3.69000        11.02700        38.15100
O           4.42100        11.36500        39.33900
C           3.91300        12.57800        39.91300
O           4.75500        12.63400        41.07400
C           7.87500        24.51900         2.92800
C           7.31700        25.84900         3.40700
O           7.55100        26.85300         2.40900
H           7.33100        26.46900         1.51300
C           7.82500        26.22500         4.79000
O           7.17400        27.38600         5.32400
H           7.65700        27.60900         6.17100
C           7.92700        22.06400         3.70200
O           7.32500        21.43700         2.56000
H           7.50600        20.45600         2.63200
C           7.39600        23.47100         3.91900
O           7.93300        23.82400         5.20200
C           7.59300        25.09400         5.77800
O           8.46400        25.25300         6.90700
C           7.90700        24.85500         8.16800
C           8.29000        23.42900         8.52900
O           7.95000        22.45100         7.53500
H           7.91800        23.04700         6.73300
C           7.92600        23.03600         9.95200
O           8.50700        21.84900        10.51200
H           8.22300        21.69900        11.45900
C           7.80000        27.25400         9.11300
O           8.34700        27.91600         7.96300
H           8.38600        28.88500         8.20700
C           8.31200        25.83000         9.26100
O           7.82400        25.37200        10.53100
C           8.23300        24.08300        11.01000
O           7.45000        23.86900        12.19300
C           7.98300        24.40400        13.41300
C           7.38200        25.72200        13.87100
O           7.75100        26.71400        12.90200
H           7.31700        26.48400        12.03100
C           7.95400        26.07700        15.23400
O           7.43100        27.32700        15.70600
H           7.87200        27.59000        16.56500
C           8.06800        21.92400        14.21800
O           7.70500        21.21900        13.02200
H           7.80700        20.25300        13.26000
C           7.70000        23.37300        14.49400
O           8.40900        23.82900        15.65500
C           7.77300        24.96700        16.25600
O           8.59500        25.22600        17.40300
C           7.87400        24.91100        18.60300
C           8.44300        23.59000        19.09300
O           8.11700        22.49500        18.22600
H           8.55600        22.71800        17.35500
C           7.91500        23.18600        20.46000
O           8.50400        21.97800        20.96300
H           7.94500        21.70000        21.74400
C           7.72700        27.33900        19.39800
O           8.20200        27.92600        18.17700
H           7.88500        28.87000        18.26700
C           8.15100        25.91300        19.71100
O           7.57900        25.57700        20.98400
C           8.12800        24.33100        21.43700
O           7.27600        24.02800        22.55100
C           7.81200        24.30400        23.85300
C           7.25600        25.56600        24.49400
O           7.31600        26.63500        23.53900
H           7.28400        26.32200        22.59000
C           7.86200        25.98800        25.82300
O           7.14600        27.06000        26.45300
H           7.55800        27.40300        27.29800
C           8.24600        21.85500        24.51900
O           7.57600        21.16700        23.45300
H           7.74200        20.18700        23.56400
C           7.73300        23.22800        24.92300
O           8.36900        23.66800        26.13200
C           7.79700        24.81200        26.78300
O           8.65400        25.06900        27.90500
C           8.05100        24.67900        29.14800
C           8.55300        23.34800        29.68400
O           8.28900        22.30300        28.73600
H           8.74100        22.61900        27.90100
C           7.89300        23.02500        31.01500
O           8.41200        21.84500        31.64500
H           7.82900        21.68400        32.44200
C           7.90700        27.12900        29.86200
O           8.27200        27.90300        28.71000
H           8.25900        28.90000        28.79500
C           8.34700        25.71800        30.21700
O           7.81600        25.40800        31.51300
C           8.23100        24.12600        32.00700
O           7.40000        24.05400        33.17500
C           8.01300        24.47900        34.40100
C           7.37700        25.75800        34.92100
O           7.47900        26.76500        33.90400
H           7.30700        26.32500        33.02200
C           7.88800        26.19100        36.28600
O           7.14100        27.31600        36.77000
H           7.46200        27.49600        37.70000
C           8.15200        22.05900        35.32300
O           7.65200        21.25800        34.24200
H           7.79500        20.27900        34.38700
C           7.71300        23.50000        35.52400
O           8.40100        23.88300        36.72300
C           7.79400        25.05400        37.29000
O           8.53400        25.10500        38.51800
C           7.79800        24.82200        39.71700
C           8.51800        23.60700        40.27900
O           8.48000        22.55200        39.30700
H           9.02600        22.89200        38.54100
C           7.90400        23.19100        -0.46000
O           8.53300        22.15600         0.30900
H           7.98600        21.93800         1.11800
C           7.40700        27.31700        40.32600
O           8.04900        27.90900        39.18700
H           7.87200        28.89200        39.24000
C           7.92700        25.95100        -1.34600
O           7.33800        25.58900        -0.08900
C           7.95200        24.40800         0.44900
O           7.21900        24.27100         1.67500
C           3.77900        20.68200         0.31300
C           4.24100        19.37800        43.02100
O           4.16200        18.41300        41.96100
H           4.21000        18.89600        41.08700
C           3.44500        19.02900         2.20400
O           3.92400        17.78200         2.72800
H           3.50100        17.54600         3.60300
C           3.37100        23.10500         1.10500
O           3.69600        23.84800        -0.07900
H           3.53100        24.82500         0.05100
C           3.97900        21.74000         1.38600
O           3.37000        21.49400         2.66100
C           3.64800        20.18300         3.17400
O           2.83700        19.97400         4.34000
C           3.52900        20.30600         5.55200