# freq=raman b3lyp/6-31+g(2d,p) geom=connectivity
320 5000.com
320 5000.com
C           7.95600         7.90000         2.96800
0 1
O           7.69300        10.29700         2.60000
H           7.57600         9.88900         1.69500
C           7.88300         9.64500         4.85000
O           7.30400        10.80200         5.47200
H           7.74300        10.94900         6.35800
C           8.29600         5.47600         3.77700
O           7.79300         4.71500         2.66900
H           8.14300         3.78700         2.79100
C           7.78000         6.87400         4.07600
O           8.41400         7.24500         5.30900
C           7.79000         8.44800         5.78200
O           8.63000         8.68200         6.92200
C           8.20900         8.41500         8.26800
C           8.59100         7.05700         8.83300
O           8.00800         5.94400         8.14000
H           8.24600         5.98100         7.16900
C           8.28600         6.80500        10.30100
O           8.76800         5.54100        10.78000
H           8.40600         5.35800        11.69400
C           7.87700        10.74900         9.02400
O           8.10200        11.49500         7.81900
H           8.51700        12.35900         8.10600
C           8.60600         9.44700         9.31100
O           8.12300         9.13300        10.62500
C           8.63600         7.94400        11.24400
O           7.79100         7.70600        12.37900
C           8.33500         8.00300        13.67300
C           7.90400         9.38300        14.14400
O           8.43900        10.40600        13.29200
H           8.14500        10.12000        12.38100
C           8.42400         9.69900        15.53700
O           7.84000        10.81900        16.21800
H           8.35200        11.11300        17.02600
C           8.30900         5.63800        14.35100
O           7.87900         4.97800        13.15100
H           8.19100         4.03300        13.24600
C           7.79600         7.02500        14.70400
O           8.44500         7.29100        15.95600
C           8.12200         8.57400        16.51300
O           9.02000         8.78700        17.61100
C           8.43200         8.49600        18.88800
C           8.94600         7.14100        19.34600
O           8.87400         6.07700        18.38700
H           9.17300         6.56100        17.56500
C           8.48200         6.69100        20.72200
O           9.15500         5.57000        21.31300
H           8.75500         5.30500        22.19000
C           8.52700        11.00000        19.66000
O           8.90500        11.80400        18.53400
H           8.81500        12.77000        18.77500
C           8.87600         9.54000        19.90000
O           8.22200         9.15400        21.11700
C           8.68000         7.89400        21.63000
O           7.83100         7.66700        22.76400
C           8.52800         7.87000        24.00200
C           8.19700         9.27800        24.47100
O           8.43600        10.31500        23.50900
H           8.18400         9.97000        22.60400
C           8.65400         9.67600        25.86500
O           7.99600        10.93200        26.08700
H           8.10900        11.15100        27.05600
C           8.52900         5.49800        24.82600
O           8.16200         4.81400        23.61900
H           8.23700         3.85500        23.89400
C           8.13200         6.93300        25.13100
O           8.66200         7.28600        26.41700
C           8.21700         8.58600        26.83000
O           9.06600         8.80000        27.96700
C           8.33600         8.43800        29.14800
C           8.95100         7.10600        29.54600
O           8.52900         6.04700        28.67500
H           8.71900         6.37600        27.74900
C           8.48700         6.82600        30.96600
O           9.07300         5.62500        31.49000
H           8.79900         5.43100        32.43200
C           7.85800        10.77400        29.86300
O           8.33100        11.60800        28.79500
H           8.23700        12.58600        28.98000
C           8.65700         9.51800        30.16900
O           8.31500         9.14900        31.51300
C           8.93100         7.92000        31.92300
O           8.13300         7.69300        33.09500
C           8.58200         8.03000        34.41500
C           7.92100         9.34400        34.80100
O           8.50400        10.35900        33.97200
H           8.48100        10.09600        33.00700
C           8.21200         9.69000        36.25200
O           7.50300        10.84500        36.72600
H           7.74200        11.06600        37.67100
C           8.55800         5.52200        35.26600
O           8.23900         4.88700        34.01900
H           8.38600         3.90600        34.14300
C           8.22600         6.99200        35.46700
O           8.70500         7.44200        36.74300
C           8.03300         8.58800        37.28400
O           8.58100         8.94700        38.56000
C           7.96000         8.43400        39.74800
C           8.66600         7.18800        40.25700
O           8.96800         6.21600        39.24600
H           9.33300         6.68600        38.44200
C           8.16300         6.66000        -0.46800
O           8.87900         5.51700         0.02300
H           8.42800         5.25000         0.87400
C           7.55800        10.82900        40.57800
O           7.87900        11.48100        39.34000
H           7.60300        12.41600        39.56200
C           8.09000         9.44300        -1.18300
O           7.61700         8.92000         0.06700
C           8.36800         7.78900         0.52900
O           7.51800         7.52400         1.65400
C           3.91800         4.59100         0.23600
C           4.22100         3.18000        42.78600
O           4.17900         2.12700        41.81300
H           4.60800         2.38600        40.94700
C           3.60700         2.99100         2.10600
O           3.97000         1.64200         2.43400
H           3.81700         1.46200         3.40600
C           3.91400         6.99500         0.94700
O           4.28500         7.67400        -0.26200
H           3.95400         8.61600        -0.20700
C           4.43000         5.59800         1.25300
O           4.02100         5.25300         2.58500
C           4.28800         3.93400         3.08400
O           3.61200         3.90700         4.35000
C           4.40000         4.03000         5.54300
C           3.82900         5.33000         6.08700
O           3.98300         6.42300         5.17100
H           3.77400         6.13700         4.23500
C           4.50000         5.62600         7.41900
O           3.99500         6.81500         8.04400
H           4.41400         7.01600         8.93000
C           4.65900         1.53900         6.17100
O           4.09200         0.79500         5.08200
H           4.38000        -0.15200         5.22700
C           4.13900         2.91700         6.54500
O           4.46400         3.22800         7.90800
C           4.21600         4.53700         8.44000
O           4.99000         4.50300         9.64800
C           4.22500         4.29200        10.84400
C           4.48800         2.87400        11.32400
O           4.43600         1.93700        10.23900
H           4.77800         2.40300         9.42300
C           3.84000         2.58700        12.66900
O           4.55100         1.43900        13.15400
H           4.20500         1.15000        14.04700
C           4.04900         6.71300        11.69800
O           4.47500         7.52300        10.59200
H           4.33000         8.49200        10.79000
C           4.56800         5.30200        11.92600
O           4.02300         4.96200        13.21000
C           4.20200         3.63000        13.71300
O           3.39500         3.50500        14.89300
C           4.21000         3.98800        15.97100
C           3.78300         5.30600        16.59600
O           3.86600         6.38300        15.65000
H           3.64400         5.94300        14.77900
C           4.54800         5.75000        17.83200
O           4.13200         6.99200        18.42000
H           4.28000         7.11700        19.40100
C           4.40600         1.56600        16.70800
O           3.89900         0.83900        15.57900
H           4.10100        -0.11900        15.78100
C           4.05700         2.99000        17.10700
O           4.83200         3.35700        18.25800
C           4.35900         4.59700        18.80400
O           5.04800         4.64000        20.06200
C           4.25100         4.29900        21.20700
C           4.65900         2.92300        21.70700
O           4.50800         1.92400        20.68800
H           4.86600         2.36000        19.86100
C           3.83900         2.60200        22.94500
O           4.09900         1.27000        23.41000
H           3.89900         1.13800        24.38100
C           3.97800         6.68700        22.10900
O           4.62500         7.42600        21.06300
H           4.52200         8.41600        21.16600
C           4.50300         5.28000        22.34100
O           3.95800         4.89000        23.61000
C           4.20000         3.55400        24.07400
O           3.45400         3.32200        25.27700
C           4.05100         3.69300        26.52800
C           3.53500         5.04300        26.99900
O           3.78300         6.12100        26.08500
H           3.48200         5.78700        25.19200
C           4.18000         5.38800        28.33100
O           3.71100         6.66900        28.77700
H           4.10200         6.85900        29.67700
C           4.05400         1.27200        27.16700
O           3.73000         0.67100        25.90500
H           3.67600        -0.29100        26.17200
C           3.73200         2.68600        27.62100
O           4.24200         3.02500        28.91900
C           3.80400         4.32300        29.34700
O           4.68400         4.49400        30.46900
C           4.05300         4.28200        31.74000
C           4.56900         2.94200        32.23700
O           4.16800         1.87400        31.36700
H           4.52100         2.18400        30.48500
C           4.06800         2.69500        33.65100
O           4.47000         1.36600        34.01300
H           4.28500         1.29500        34.99400
C           3.90200         6.72400        32.46900
O           4.05600         7.40300        31.21400
H           4.10700         8.38900        31.37600
C           4.44300         5.33500        32.76500
O           4.04800         5.08800        34.12200
C           4.40800         3.79800        34.63900
O           3.57300         3.71200        35.80400
C           4.31600         3.95700        37.00700
C           3.98700         5.36100        37.48800
O           3.87400         6.37400        36.47900
H           3.79400         5.85500        35.62800
C           4.58600         5.71700        38.83900
O           4.20200         7.03700        39.25000
H           4.46500         7.20500        40.20000
C           4.32900         1.59700        37.91100
O           3.72600         0.96400        36.77300
H           3.92300        -0.00900        36.88900
C           3.98700         3.05200        38.18400
O           4.76500         3.40300        39.33700
C           4.30800         4.64800        39.88400
O           4.83400         4.81400        41.20800
C           8.10100        15.97400         2.99000
C           7.63000        17.30200         3.56000
O           8.18500        18.26800         2.65600
H           8.04900        17.85500         1.75500
C           8.12800        17.60900         4.96300
O           7.52400        18.80500         5.47500
H           8.00600        19.12600         6.29000
C           8.43500        13.55400         3.72300
O           7.84000        12.85500         2.62000
H           7.74300        11.90200         2.90400
C           7.92200        14.93700         4.08700
O           8.65400        15.27000         5.27600
C           7.95000        16.38400         5.84500
O           8.79200        16.69100         6.96600
C           8.24500        16.40300         8.26100
C           8.80900        15.11200         8.83200
O           8.62300        14.04300         7.89200
H           8.99900        14.33300         7.01200
C           8.22000        14.79900        10.19800
O           8.84400        13.59700        10.67300
H           8.59900        13.53000        11.64000
C           8.05500        18.83300         8.80800
O           8.83700        19.61700         7.89500
H           8.40500        20.51800         7.85200
C           8.64700        17.50000         9.23300
O           8.06700        17.23600        10.51900
C           8.44500        15.98800        11.11800
O           7.68800        15.74800        12.31300
C           8.25200        16.22200        13.54400
C           7.60800        17.54400        13.93100
O           7.88000        18.50400        12.89900
H           7.88000        18.06300        12.00200
C           8.03600        17.94000        15.33500
O           7.07600        18.86000        15.87500
H           7.29300        19.09600        16.82200
C           8.54900        13.83600        14.51500
O           8.21600        13.08200        13.34100
H           8.61200        12.16900        13.44000
C           8.04400        15.25700        14.70000
O           8.75400        15.71300        15.86100
C           7.95000        16.80100        16.33800
O           8.63000        17.22600        17.52800
C           8.11400        16.75200        18.78100
C           8.93200        15.58600        19.31200
O           8.88200        14.52200        18.35000
H           8.95500        14.97400        17.46200
C           8.48900        14.96800        20.62900
O           9.28000        13.91200        21.19300
H           8.76500        13.39900        21.87900
C           7.43400        19.01400        19.64500
O           7.46500        19.69400        18.38100
H           7.41700        20.66400        18.61800
C           8.29800        17.78600        19.87900
O           7.88500        17.22300        21.13300
C           8.55000        16.07200        21.67300
O           7.77700        15.79900        22.85000
C           8.26100        16.26300        24.11900
C           7.70600        17.59800        24.58700
O           7.73400        18.60200        23.56100
H           7.51200        18.17500        22.68500
C           8.29600        17.97700        25.93500
O           7.65600        19.11900        26.52500
H           7.66100        19.15600        27.52500
C           8.65500        13.86400        24.90300
O           8.24500        13.19200        23.70400
H           8.40200        12.21100        23.82100
C           7.94200        15.18500        25.14200
O           8.35400        15.55400        26.46700
C           7.88200        16.84900        26.86600
O           8.54800        17.01400        28.12700
C           7.92000        16.66100        29.36700
C           8.48700        15.32400        29.81300
O           8.25500        14.19300        28.96000
H           8.45400        14.54400        28.04500
C           8.03700        14.92700        31.21000
O           8.62600        13.67800        31.60000
H           8.37800        13.45300        32.54300
C           7.84400        19.16800        30.14300
O           8.10600        19.87600        28.92300
H           8.00900        20.87100        28.94800
C           8.32000        17.74100        30.36000
O           7.84800        17.36700        31.66200
C           8.33700        16.10100        32.12800
O           7.53900        15.86300        33.29700
C           7.96000        16.18400        34.63000
C           7.35300        17.50800        35.06600
O           7.57400        18.54900        34.10300
H           7.29400        18.13600        33.23700
C           8.01000        17.84400        36.39500
O           7.63900        19.06300        37.05500
H           8.00000        19.19900        37.97800
C           8.20200        13.72200        35.20900
O           7.84500        12.92200        34.07300
H           8.11500        11.96300        34.16300
C           7.56800        15.05600        35.57100
O           7.94000        15.37300        36.92000
C           7.68700        16.71500        37.36000
O           8.62400        16.79300        38.44400
C           8.00200        16.48400        39.70000
C           8.39300        15.11700        40.23700
O           7.74500        14.09900        39.46100
H           8.04000        14.23600        38.51500
C           7.98200        14.74300        -0.40700
O           8.62400        13.60500         0.18600
H           8.21500        13.29100         1.04300
C           8.20900        18.89100        40.49500
O           8.77900        19.55900        39.36100
H           8.68000        20.55000        39.45300
C           8.43700        17.42500        -1.25100
O           7.64300        17.11800        -0.09600
C           8.16100        15.93200         0.52200
O           7.44200        15.70500         1.74400
C           3.76300        12.73200         0.12500
C           4.22100        11.35900        42.66600
O           3.80100        10.32400        41.76500
H           3.82400        10.67700        40.82900
C           3.59900        10.96900         1.93800
O           4.14100         9.75800         2.48600
H           3.70200         9.52700         3.35400
C           3.63300        15.23000         0.95200
O           3.92600        15.98200        -0.23500
H           3.76900        16.93500         0.02400
C           4.03700        13.78400         1.18700
O           3.50200        13.36900         2.45200
C           3.91000        12.07900         2.92900
O           3.18300        11.88600         4.15100
C           3.64900        12.12600         5.48700
C           3.17800        13.44700         6.07500
O           3.22200        14.42200         5.02300
H           3.07700        13.99900         4.12900
C           3.95600        13.70300         7.35500
O           3.54900        14.96300         7.90900
H           3.83400        15.02800         8.86500
C           3.94700         9.60500         6.18300
O           3.45000         9.03300         4.96400
H           3.60000         8.04500         4.98600
C           3.45200        11.00700         6.49700
O           4.17000        11.31200         7.70100
C           3.72400        12.53700         8.30200
O           4.57000        12.76700         9.43800
C           3.95900        12.61700        10.72800
C           4.34000        11.21600        11.17900
O           4.01400        10.16700        10.25600
H           4.01300        10.55000         9.33200
C           3.74900        10.93600        12.55200
O           4.04200         9.62100        13.04400
H           3.73400         9.52500        13.99100
C           4.04600        15.05500        11.63000
O           4.39300        15.66500        10.37800
H           3.99100        16.57900        10.43000
C           4.42500        13.59200        11.79700
O           3.97600        13.24700        13.11600
C           4.32600        11.92500        13.55100
O           3.61500        11.82100        14.79400
C           4.25600        12.21900        16.01400
C           3.79100        13.54700        16.58700
O           4.06200        14.61800        15.67000
H           3.92400        14.26300        14.74500
C           4.48000        13.85500        17.90700
O           3.89700        15.01700        18.51500
H           4.34900        15.06000        19.40600
C           4.29100         9.76100        16.77900
O           3.53400         9.21700        15.68800
H           3.51600         8.21900        15.75200
C           3.91500        11.20000        17.09000
O           4.61200        11.51300        18.30500
C           4.18600        12.74600        18.90300
O           5.01400        12.86800        20.06800
C           4.25200        12.56000        21.24500
C           4.58700        11.17100        21.76300
O           4.52500        10.08600        20.82600
H           4.79000        10.46100        19.93700
C           3.83600        10.80300        23.03300
O           4.10300         9.51200        23.60000
H           3.62100         9.56300        24.47400
C           4.27300        14.95900        22.06900
O           4.84800        15.64000        20.94400
H           4.60500        16.60500        21.04200
C           4.52300        13.49900        22.40900
O           3.78400        13.16300        23.59300
C           4.18400        11.86700        24.06200
O           3.38600        11.88400        25.25500
C           4.04800        12.09700        26.51000
C           3.70700        13.45800        27.09600
O           3.96900        14.45800        26.10100
H           3.72100        14.16900        25.17600
C           4.39500        13.71800        28.42700
O           3.86800        14.94100        28.96100
H           4.31300        15.15600        29.83000
C           4.23600         9.63900        27.10600
O           3.69900         8.81900        26.05800
H           3.89600         7.85500        26.23900
C           3.72100        11.00800        27.51900
O           4.34900        11.32900        28.76900
C           3.93700        12.58400        29.32900
O           4.61000        12.78400        30.58000
C           3.87800        12.52400        31.78700
C           4.25000        11.12000        32.23500
O           3.76700        10.13900        31.30500
H           3.89000        10.42700        30.35600
C           3.71200        10.80900        33.62100
O           3.92400         9.46900        34.08900
H           3.56300         9.44500        35.02100
C           4.18000        14.91000        32.52200
O           4.63900        15.61200        31.35700
H           4.43800        16.58100        31.50300
C           4.51100        13.45500        32.80800
O           4.01100        13.20700        34.13000
C           4.26600        11.86300        34.56600
O           3.41500        11.91400        35.72000
C           4.08700        12.29100        36.93100
C           3.67400        13.65200        37.46700
O           3.85100        14.54900        36.36100
H           3.76600        14.04500        35.50200
C           4.21900        14.01300        38.83900
O           3.65000        15.21800        39.37300
H           4.07500        15.60700        40.19000
C           3.80000         9.80800        37.80500
O           3.29400         9.02000        36.71700
H           3.40500         8.05600        36.95500
C           3.63800        11.30700        37.99900
O           4.21000        11.59600        39.28200
C           3.83100        12.88700        39.78300
O           4.54000        13.05500        41.01900
C           8.18200        24.09400         2.97800
C           7.60000        25.42400         3.42900
O           7.72400        26.53900         2.53500
H           7.66400        26.16400         1.61000
C           8.02200        25.79400         4.84200
O           7.57300        27.05400         5.35900
H           7.72000        27.12900         6.34600
C           8.25200        21.69100         3.72400
O           7.89000        20.95500         2.54700
H           8.20200        20.00500         2.55000
C           7.71100        23.08200         4.01000
O           8.19800        23.38100         5.32600
C           7.72100        24.65000         5.79600
O           8.45800        24.90100         7.00200
C           7.71900        24.56800         8.18700
C           8.29400        23.26000         8.70700
O           7.95300        22.15100         7.86200
H           8.12900        22.52900         6.95300
C           8.05800        22.82000        10.14200
O           8.91300        21.76300        10.60300
H           8.69200        21.55300        11.55500
C           7.41000        27.00200         9.03600
O           8.08900        27.69100         7.97700
H           8.02800        28.67400         8.15100
C           8.00500        25.61900         9.24600
O           7.43500        25.13000        10.46900
C           8.15700        24.03400        11.05000
O           7.56100        23.84200        12.34100
C           8.10600        24.26000        13.60100
C           7.40200        25.53600        14.03500
O           7.30300        26.55900        13.03300
H           6.91400        26.11300        12.22700
C           7.86500        25.89000        15.43900
O           7.17400        27.05500        15.91100
H           7.48500        27.34200        16.81700
C           8.61200        21.94200        14.44000
O           8.65100        21.21000        13.20700
H           8.89900        20.24400        13.28700
C           7.71300        23.16000        14.57400
O           7.84600        23.44900        15.97400
C           7.58400        24.78000        16.44000
O           8.40400        24.99600        17.59800
C           7.69500        24.61700        18.78700
C           8.14200        23.27800        19.35000
O           7.77000        22.24200        18.42900
H           8.12700        22.58000        17.55800
C           7.70100        23.01000        20.78000
O           8.42700        21.93600        21.39700
H           8.11900        21.86000        22.34600
C           7.54000        27.02600        19.55600
O           7.74000        27.88500        18.42400
H           7.38700        28.79800        18.62900
C           8.00900        25.61800        19.88700
O           7.27200        25.32000        21.08100
C           7.93000        24.20200        21.69400
O           7.08700        24.08800        22.85000
C           7.70300        24.42200        24.10300
C           7.02900        25.65500        24.68400
O           7.01700        26.75400        23.76100
H           6.72400        26.47100        22.84700
C           7.49300        26.10800        26.05800
O           6.94700        27.25300        26.72800
H           7.34900        27.19400        27.64200
C           8.40200        22.12200        24.88600
O           7.90200        21.37900        23.76500
H           7.99900        20.39100        23.88000
C           7.60400        23.37700        25.20200
O           8.15100        23.80000        26.46000
C           7.50800        24.94500        27.03700
O           8.41500        25.33900        28.07800
C           7.94600        24.83300        29.33600
C           8.49500        23.47600        29.74600
O           7.93800        22.46300        28.89600
H           8.12400        22.89200        28.01200
C           8.06700        23.11800        31.15900
O           8.97500        22.13000        31.66900
H           8.46300        21.69200        32.40800
C           7.51500        27.29200        30.10100
O           8.41000        27.89500        29.15600
H           8.24400        28.87700        29.05700
C           8.04700        25.90200        30.41200
O           7.40400        25.45200        31.61200
C           8.09600        24.30000        32.11500
O           7.34100        23.96200        33.28800
C           7.90400        24.32400        34.55700
C           7.32700        25.66700        34.97400
O           7.75800        26.73800        34.12100
H           7.48300        26.57500        33.17400
C           7.71600        25.94800        36.41700
O           7.09200        27.11200        36.97700
H           7.59900        27.36300        37.80200
C           7.84800        21.85000        35.18800
O           7.45400        21.15100        33.99800
H           7.49400        20.17800        34.22600
C           7.40500        23.26500        35.52600
O           7.77300        23.52200        36.88900
C           7.41600        24.81900        37.38900
O           8.39600        24.88400        38.43600
C           7.92100        24.49900        39.73500
C           8.59000        23.23300        40.24600
O           8.37200        22.13100        39.35300
H           8.13300        22.45400        38.43700
C           8.18300        22.79000        -0.41800
O           8.81900        21.61500         0.10700
H           8.39100        21.33000         0.96500
C           7.63600        26.88600        40.62900
O           7.95600        27.61200        39.43300
H           7.86300        28.59100        39.61300
C           8.22400        25.50500        -1.22900
O           7.65900        25.11000         0.03000
C           8.36700        23.96500         0.52800
O           7.56500        23.82500         1.71000
C           3.62400        20.80100         0.32400
C           4.06500        19.43500        42.90000
O           3.80600        18.41400        41.92600
H           4.09100        18.79300        41.04600
C           3.62300        19.10000         2.25600
O           4.07300        17.86900         2.84100
H           3.60500        17.67600         3.70400
C           4.03500        23.19400         1.00000
O           4.52800        23.81300        -0.19700
H           4.41500        24.79800        -0.06500
C           4.23000        21.73100         1.36300
O           3.64000        21.47200         2.64500
C           4.03300        20.21200         3.20700
O           3.22700        20.09200         4.38900
C           3.92000        20.44400         5.59500
C           3.45800        21.80300         6.09400