# freq=raman b3lyp/6-31+g(2d,p) geom=connectivity

493 5743/5743.com

0 1
C           8.26200         8.00600         2.76000
C           7.69100         9.30900         3.29600
O           7.88300        10.36400         2.34300
H           7.48700        10.11000         1.46100
C           8.12500         9.68700         4.70300
O           7.55600        10.90900         5.19600
H           7.86300        10.93600         6.14700
C           8.64600         5.57800         3.57700
O           8.04700         4.81800         2.51800
H           8.29100         3.85600         2.64200
C           8.02100         6.94200         3.81800
O           8.56600         7.36000         5.07800
C           7.87600         8.49800         5.61500
O           8.65000         8.78300         6.79000
C           8.11500         8.38900         8.06200
C           8.78600         7.11400         8.54700
O           8.54900         6.06500         7.59700
H           8.70400         6.45100         6.68800
C           8.29100         6.75300         9.93800
O           8.90700         5.56900        10.46600
H           8.61100         5.34700        11.39500
C           7.65000        10.80500         8.78000
O           8.05600        11.49700         7.59100
H           7.83100        12.46800         7.51700
C           8.33700         9.48500         9.09100
O           7.82300         9.18300        10.39700
C           8.42200         7.96100        10.85200
O           7.71300         7.59700        12.04500
C           8.14400         8.08800        13.32200
C           7.60200         9.41300        13.83400
O           7.94500        10.42600        12.87700
H           7.67100        10.01600        12.00700
C           8.15300         9.81500        15.19200
O           7.42200        10.98300        15.59400
H           7.40500        11.06500        16.59000
C           8.73400         5.71500        14.17500
O           8.44900         4.94900        12.99500
H           8.60100         3.99400        13.24900
C           7.98000         7.01700        14.38800
O           8.52400         7.49100        15.62900
C           7.97200         8.68800        16.19500
O           8.72100         8.88300        17.40400
C           8.06200         8.55400        18.63500
C           8.65000         7.24200        19.12800
O           8.21800         6.20400        18.23500
H           8.39000         6.62700        17.34600
C           8.26300         6.73900        20.50900
O           8.98400         5.61800        21.04200
H           8.81100         5.48100        22.01800
C           7.52400        10.89500        19.48400
O           7.88000        11.70100        18.35200
H           7.78300        12.67900        18.53500
C           8.26100         9.58900        19.73100
O           7.71600         9.08500        20.95900
C           8.27200         7.88200        21.51000
O           7.44100         7.54800        22.63100
C           8.08500         7.91900        23.85800
C           7.30800         9.10600        24.40400
O           7.44400        10.24400        23.54100
H           7.31700         9.95800        22.59100
C           7.78700         9.52800        25.78400
O           7.08600        10.62500        26.38700
H           7.54000        11.00800        27.19200
C           8.70700         5.50600        24.56500
O           8.31100         4.75800        23.40700
H           8.30300         3.77200        23.57100
C           8.06100         6.83500        24.92300
O           8.50900         7.23300        26.22600
C           7.88100         8.39300        26.79100
O           8.69500         8.77800        27.90800
C           8.36100         8.47300        29.27000
C           9.07800         7.23700        29.78700
O           8.90500         6.20000        28.81000
H           9.02200         6.64700        27.92300
C           8.65900         6.89100        31.20700
O           9.21600         5.69300        31.76700
H           8.65300         5.48200        32.56500
C           7.82100        10.97300        29.93400
O           7.95200        11.71400        28.71300
H           7.97500        12.68500        28.95100
C           8.50700         9.64800        30.22400
O           8.01500         9.19100        31.49200
C           8.72100         8.10800        32.11600
O           7.74100         7.87600        33.13700
C           8.20400         8.18400        34.46000
C           7.48200         9.43500        34.93400
O           7.56700        10.51400        33.99200
H           7.38000        10.19900        33.06100
C           8.06200         9.91000        36.25600
O           7.69900        11.11800        36.93900
H           8.21100        11.14800        37.79800
C           8.38300         5.71900        35.20100
O           7.88500         4.97000        34.08300
H           8.15000         4.03000        34.29600
C           7.92000         7.13200        35.51900
O           8.55800         7.60800        36.71300
C           8.02100         8.80400        37.29700
O           8.93600         8.87300        38.40000
C           8.39100         8.54300        39.68600
C           8.86900         7.17400        40.14200
O           8.78200         6.24900        39.04800
H           8.90000         6.77300        38.20400
C           8.24800         6.79800        -0.59200
O           8.69700         5.53800        -0.07300
H           8.18500         5.24900         0.73600
C           8.14500        10.91500        40.47700
O           8.63100        11.64400        39.34100
H           8.30500        12.58600        39.42900
C           8.70900         9.53800        -1.28500
O           8.11900         9.12100        -0.04500
C           8.51600         7.84500         0.47700
O           7.63000         7.53300         1.56200
C           4.46100         4.51600         0.23700
C           4.80900         3.09500        42.71500
O           4.42700         2.09300        41.76100
H           4.68900         2.47400        40.87500
C           4.24800         2.78600         2.02500
O           4.68000         1.51600         2.53700
H           4.30200         1.35500         3.44800
C           4.05600         6.85400         0.99600
O           4.32800         7.61100        -0.19200
H           4.16200         8.56800         0.04900
C           4.72500         5.53200         1.33600
O           4.13200         5.19800         2.59900
C           4.53300         3.89000         3.03000
O           3.88100         3.59900         4.27500
C           4.44800         3.92300         5.55300
C           4.02200         5.32000         5.97600
O           4.23200         6.40300         5.05800
H           3.86600         6.07200         4.18800
C           4.65600         5.48900         7.34700
O           4.53800         6.85600         7.76800
H           4.78400         6.95200         8.73200
C           4.25100         1.52200         6.25800
O           4.12400         0.75900         5.04900
H           4.40400        -0.16100         5.32600
C           3.79500         2.94900         6.51900
O           4.17100         3.19700         7.88200
C           3.97700         4.54700         8.32700
O           4.74800         4.62300         9.53500
C           3.98700         4.44600        10.73900
C           4.22700         3.03600        11.25300
O           3.80600         2.09500        10.25500
H           4.19800         2.41900         9.39400
C           3.67600         2.75300        12.64200
O           4.19800         1.49600        13.09600
H           4.02000         1.37700        14.07300
C           3.96800         6.87500        11.44600
O           4.62100         7.52500        10.34600
H           4.59000         8.52400        10.38900
C           4.40100         5.45900        11.79300
O           3.69800         5.10400        12.99200
C           4.13900         3.86600        13.56800
O           3.46100         3.72500        14.82500
C           4.30700         3.96200        15.95900
C           3.73400         5.27100        16.47800
O           3.57100         6.33200        15.52500
H           3.45100         5.89600        14.63300
C           4.33300         5.71100        17.80300
O           3.80400         6.94200        18.31800
H           4.13900         6.92200        19.26000
C           4.78400         1.63200        16.63600
O           4.06600         0.93800        15.60400
H           4.13600        -0.05000        15.74200
C           4.17300         2.94900        17.08400
O           4.68600         3.38600        18.35100
C           4.10600         4.61000        18.82600
O           4.76600         4.88300        20.07000
C           4.08600         4.45700        21.26000
C           4.33000         3.06600        21.82100
O           3.99700         2.07000        20.84200
H           4.26000         2.35600        19.92100
C           3.50400         2.83600        23.07500
O           3.35000         1.48600        23.53800
H           3.29700         1.53100        24.53500
C           3.93400         6.90500        22.01200
O           4.43100         7.68300        20.91300
H           4.08600         8.60700        21.07400
C           4.26700         5.46800        22.38100
O           3.56200         5.14000        23.58700
C           3.96600         3.86100        24.09800
O           3.44200         3.58800        25.40500
C           4.17300         4.04200        26.55400
C           3.76900         5.40900        27.08100
O           3.90600         6.41700        26.06900
H           3.64400         5.99700        25.19900
C           4.55500         5.72300        28.34400
O           4.06100         6.92500        28.95100
H           4.40100         7.02000        29.88700
C           4.27100         1.61600        27.37300
O           3.69900         0.94200        26.24300
H           3.94900        -0.02600        26.23900
C           3.90100         3.05800        27.68100
O           4.70000         3.30600        28.84700
C           4.30000         4.59500        29.33100
O           5.02600         4.75300        30.55900
C           4.29600         4.55100        31.77800
C           4.64500         3.16800        32.30200
O           4.48600         2.18000        31.27300
H           4.69100         2.56800        30.37500
C           3.90100         2.89500        33.59900
O           3.90000         1.53800        34.06600
H           3.75700         1.57400        35.05500
C           4.29900         7.00200        32.51700
O           5.04900         7.61200        31.45700
H           4.81700         8.58400        31.42000
C           4.59400         5.55600        32.87900
O           4.06200         5.24400        34.17500
C           4.45000         3.92200        34.57500
O           3.83100         3.73900        35.85600
C           4.46200         4.14800        37.07900
C           3.95600         5.49200        37.57700
O           4.22600         6.50600        36.59800
H           3.93300         6.17000        35.70300
C           4.64100         5.83600        38.89000
O           3.84600         6.91500        39.40400
H           4.21900         7.06600        40.31900
C           4.44900         1.71900        37.88800
O           3.83400         1.04100        36.78300
H           4.10600         0.08000        36.82900
C           4.06300         3.16200        38.16500
O           4.62700         3.47300        39.44700
C           4.29300         4.78200        39.92900
O           5.10700         4.95100        41.09900
C           8.03100        15.98000         2.88900
C           7.28000        17.18600         3.42900
O           7.36600        18.26000         2.48200
H           7.43600        17.71800         1.64500
C           7.77800        17.61900         4.79800
O           6.98400        18.68300         5.34100
H           7.41800        19.14300         6.11600
C           8.41100        13.55900         3.51200
O           7.89500        12.92900         2.33000
H           7.98300        11.94900         2.50300
C           7.87300        14.90900         3.95700
O           8.24600        15.22800         5.30500
C           7.63600        16.44600         5.75400
O           8.53600        16.73000         6.83500
C           7.98900        16.40100         8.12000
C           8.54900        15.07500         8.61000
O           8.38800        13.99400         7.68100
H           8.62200        14.38900         6.79200
C           8.07100        14.67300         9.99500
O           8.63900        13.47800        10.55100
H           8.33900        13.47700        11.50500
C           8.02900        18.91400         8.88500
O           8.44700        19.51700         7.65200
H           8.32000        20.50700         7.72700
C           8.34700        17.45300         9.15800
O           7.72100        17.06300        10.38900
C           8.25900        15.85100        10.93700
O           7.49500        15.75000        12.14700
C           8.09400        16.07500        13.41000
C           7.68500        17.45200        13.90900
O           8.16500        18.45000        12.99600
H           8.02700        18.13500        12.05700
C           8.15300        17.81600        15.30800
O           7.46700        18.99600        15.75200
H           7.64500        19.16400        16.72200
C           8.19500        13.67400        14.31400
O           7.88100        12.95700        13.11100
H           8.06700        11.98600        13.26300
C           7.65300        15.08500        14.47600
O           8.15700        15.39200        15.78300
C           7.78000        16.69200        16.26100
O           8.59700        16.81500        17.43400
C           7.95200        16.54700        18.68800
C           8.35100        15.16900        19.19200
O           7.75100        14.26600        18.25200
H           8.11700        14.51000        17.35300
C           7.76000        14.84800        20.55500
O           8.22100        13.63200        21.16100
H           7.81900        13.57700        22.07500
C           7.47800        18.88500        19.28100
O           7.95200        19.67300        18.18000
H           7.85000        20.62900        18.45800
C           8.18400        17.61900        19.74000
O           7.56500        17.18700        20.96000
C           8.00400        15.96000        21.56200
O           7.25300        15.81100        22.77600
C           7.80100        16.16600        24.05400
C           7.40800        17.56800        24.49100
O           7.63400        18.51300        23.43500
H           7.45400        18.04500        22.56900
C           7.93900        17.99800        25.84800
O           7.76300        19.34700        26.30600
H           8.23500        19.47700        27.17800
C           7.55500        13.84200        24.96900
O           7.46300        13.15700        23.71100
H           7.69000        12.18600        23.78600
C           7.28000        15.31900        25.20400
O           7.88300        15.61800        26.47100
C           7.49500        16.94600        26.85100
O           8.30400        17.12800        28.02200
C           7.78400        16.70100        29.28900
C           8.33400        15.35300        29.72500
O           8.06300        14.28500        28.80500
H           8.16700        14.63300        27.87300
C           7.95900        14.97500        31.14900
O           8.64800        13.77500        31.52700
H           8.36100        13.61500        32.47200
C           7.67900        19.10500        29.96300
O           8.46000        19.88000        29.04200
H           8.11400        20.80900        28.91000
C           8.16800        17.71900        30.35100
O           7.60500        17.33800        31.61500
C           8.29800        16.15600        32.04300
O           7.49900        15.91100        33.20900
C           8.09900        16.22100        34.47500
C           7.62400        17.60200        34.89600
O           8.09500        18.62600        34.00900
H           7.99400        18.25800        33.08500
C           8.14300        17.87400        36.29900
O           7.24500        18.89000        36.76700
H           7.58000        19.29700        37.61700
C           8.33400        13.78900        35.31600
O           7.72000        13.11100        34.21000
H           7.85300        12.12700        34.32700
C           7.79800        15.19200        35.55300
O           8.50700        15.55800        36.74600
C           7.93000        16.74900        37.29800
O           8.61300        17.01000        38.53300
C           7.92500        16.69600        39.75200
C           8.46200        15.31400        40.08500
O           8.09200        14.23800        39.21100
H           8.06800        14.50000        38.24600
C           8.07300        14.80300        41.46300
O           8.65000        13.56500        41.90300
H           8.30100        13.23800        42.78100
C           7.82900        19.10700        40.64300
O           7.80100        19.75700        39.36400
H           7.88900        20.74700        39.47800
C           8.24100        17.66200        -1.19400
O           7.76300        17.18100         0.07000
C           8.23600        15.87900         0.44800
O           7.43400        15.67500         1.62000
C           3.86700        12.60900         0.34200
C           4.20100        11.22600        42.94700
O           4.22600        10.24500        41.90000
H           4.41200        10.78400        41.07900
C           3.57500        10.86500         2.21600
O           3.70300         9.51100         2.67300
H           3.47400         9.50300         3.64600
C           3.82800        14.98100         1.19700
O           4.04100        15.70900        -0.02100
H           3.79700        16.66600         0.13500
C           4.31200        13.56100         1.44000
O           3.96300        13.26600         2.80000
C           4.12000        11.89400         3.19300
O           3.17100        12.04500         4.25900
C           3.85300        12.17800         5.51400
C           3.43600        13.53400         6.05900
O           3.79600        14.60500         5.17400
H           3.98200        14.15000         4.30300
C           4.07400        13.87300         7.39600
O           3.46300        15.04400         7.95700
H           3.86200        15.29200         8.84000
C           4.04700         9.75000         6.39900
O           3.69000         9.03300         5.20900
H           3.82300         8.06400         5.41400
C           3.57900        11.17900         6.62600
O           4.30900        11.50400         7.81800
C           3.85100        12.74000         8.38400
O           4.72800        12.81300         9.51800
C           4.02700        12.60800        10.75300
C           4.40200        11.22000        11.24500
O           4.21400        10.25500        10.20000
H           4.34400        10.59200         9.26800
C           3.71600        10.91900        12.56800
O           4.01500         9.64400        13.15500
H           3.69100         9.49900        14.09000
C           3.84300        14.98100        11.53000
O           4.15600        15.75600        10.36300
H           4.14700        16.71900        10.63000
C           4.49400        13.63000        11.77700
O           3.94700        13.26000        13.05100
C           4.15700        11.94900        13.59600
O           3.26300        12.00200        14.71700
C           3.90700        12.21800        15.98100
C           3.49500        13.60700        16.44200
O           4.10000        14.59100        15.59100
H           3.99900        14.28900        14.64300
C           4.02000        13.91500        17.83500
O           3.50000        15.18000        18.27000
H           3.75100        15.25100        19.23500
C           3.93700         9.83200        16.87900
O           3.51700         9.10600        15.71500
H           3.51900         8.11500        15.85200
C           3.50200        11.27200        17.09900
O           4.07600        11.56700        18.38100
C           3.67900        12.85600        18.87100
O           4.38600        13.06000        20.10300
C           3.70000        12.63600        21.29000
C           4.10200        11.28500        21.86000
O           3.73700        10.26500        20.92000
H           3.98700        10.57700        20.00300
C           3.42600        10.92200        23.17200
O           3.72700         9.58400        23.59500
H           3.56500         9.39300        24.56300
C           3.45500        15.04500        22.22600
O           3.96400        15.72600        21.07100
H           3.73100        16.69800        21.10800
C           3.96000        13.62400        22.41500
O           3.45800        13.23300        23.70200
C           3.80100        11.94500        24.23200
O           3.01300        11.90100        25.43100
C           3.76800        12.04900        26.64200
C           3.49200        13.47100        27.10400
O           3.65000        14.52200        26.13900
H           3.53200        14.09500        25.24300
C           4.14800        13.78200        28.43900
O           3.79200        15.09700        28.88700
H           4.36000        15.29100        29.68800
C           3.97000         9.75800        27.38900
O           3.66700         9.09300        26.15400
H           3.60000         8.10900        26.32100
C           3.36200        11.10100        27.75900
O           3.84700        11.45300        29.06200
C           3.62500        12.80800        29.48200
O           4.51600        12.89600        30.60400
C           3.81800        12.55000        31.80900
C           4.08800        11.12900        32.27600
O           3.75900        10.14700        31.28200
H           4.04300        10.49800        30.39000
C           3.43100        10.81300        33.61000
O           3.91200         9.56800        34.13600
H           3.46800         9.43700        35.02300
C           3.98300        14.91300        32.76600
O           4.26400        15.69900        31.59800
H           4.29500        16.65800        31.87800
C           4.36400        13.44800        32.90800
O           3.69700        13.21700        34.15700
C           3.91800        11.86700        34.59100
O           3.20500        11.77600        35.83300
C           3.89100        12.14000        37.03900
C           3.67800        13.54100        37.58700
O           4.23700        14.45600        36.63400
H           3.91100        14.14300        35.74200
C           4.25300        13.77000        38.97600
O           3.77100        15.08200        39.29800
H           4.05900        15.30000        40.23000
C           3.93400         9.78600        37.86500
O           3.34800         8.90200        36.89900
H           3.64800         7.97700        37.13400
C           3.52100        11.21300        38.18600
O           4.01000        11.40700        39.52100
C           3.74700        12.74200        39.97500
O           4.53600        12.86900        41.16700
C           7.99900        24.18700         3.06000
C           7.65700        25.59600         3.51600
O           7.75900        26.62000         2.51500
H           7.44300        26.29100         1.62500
C           8.25400        25.84300         4.89100
O           7.88300        27.17700         5.26800
H           7.96800        27.19200         6.26400
C           7.69600        21.62500         3.79800
O           7.43300        21.00600         2.53000
H           7.46600        20.01500         2.65500
C           7.52300        23.11800         4.02900
O           7.92400        23.46000         5.36400
C           7.70900        24.79400         5.84700
O           8.42400        24.93400         7.08300
C           7.67900        24.62800         8.27100
C           8.32700        23.32800         8.72200
O           7.98800        22.30100         7.77900
H           7.92100        22.71400         6.87100
C           8.00900        22.91300        10.14900
O           8.73400        21.77700        10.64300
H           8.32600        21.53100        11.52200
C           7.46000        27.12300         9.22300
O           7.93900        27.67100         7.98700
H           7.51600        28.57200         7.89200
C           7.89900        25.67400         9.35200
O           7.40800        25.23200        10.62600
C           8.14700        24.09500        11.09500
O           7.42100        23.74200        12.28100
C           7.89000        24.20900        13.55400
C           7.45100        25.57600        14.05300
O           7.65800        26.59400        13.06300
H           7.47300        26.25700        12.14000
C           8.21600        25.93700        15.31600
O           7.78900        27.20800        15.82700
H           8.09000        27.29600        16.77700
C           8.07900        21.73700        14.25200
O           7.60000        21.16300        13.02600
H           7.84300        20.19500        12.96300
C           7.52100        23.12000        14.54800
O           8.16300        23.46300        15.78400
C           7.83700        24.78600        16.23400
O           8.60000        24.98600        17.43300
C           8.08600        24.74400        18.75000
C           8.36800        23.34300        19.27000
O           8.36100        22.23000        18.36400
H           8.88800        22.46300        17.54700
C           7.58900        23.11500        20.55400
O           7.99700        21.83400        21.05600
H           7.63800        21.70600        21.98000
C           8.11200        27.20200        19.34400
O           8.76500        27.90000        18.27400
H           8.31400        28.78800        18.17900
C           8.52600        25.79800        19.75300
O           7.75500        25.50800        20.92800
C           8.01000        24.22000        21.50800
O           7.17200        24.03700        22.65800
C           7.81600        24.38900        23.89100
C           7.28700        25.74800        24.32100
O           7.69900        26.70900        23.33800
H           7.53900        26.44800        22.38600
C           7.70000        26.04500        25.75300
O           7.14800        27.27400        26.24800
H           7.49300        27.48500        27.16200
C           8.11200        21.99500        24.66500
O           7.38400        21.36000        23.60400
H           7.55400        20.37800        23.68100
C           7.51500        23.36000        24.96800
O           8.01700        23.72700        26.26100
C           7.48700        24.95200        26.78700
O           8.18500        25.26400        28.00200
C           7.65200        24.83800        29.26400
C           8.18800        23.48000        29.68800
O           8.13400        22.47200        28.66800
H           8.31700        22.87200        27.77000
C           7.58100        23.15300        31.04300
O           8.01300        21.89300        31.57500
H           7.42900        21.72000        32.36800
C           7.62400        27.32700        29.98200
O           7.88300        28.03400        28.76000
H           7.89100        29.01300        28.96400
C           7.95500        25.88400        30.32500
O           7.38900        25.46200        31.57400
C           7.80900        24.20200        32.11900
O           7.04200        23.89800        33.29300
C           7.67400        24.32300        34.50900
C           7.20600        25.65100        35.08100
O           7.34800        26.60400        34.01700
H           7.17500        26.13900        33.14900
C           7.93000        26.05800        36.35400
O           7.59100        27.37800        36.80300
H           7.91000        27.47800        37.74500
C           8.08600        21.93600        35.30300
O           7.66800        21.20600        34.14100
H           7.83300        20.22100        34.19400
C           7.51400        23.30600        35.62800
O           8.11500        23.71900        36.86500
C           7.64300        24.97300        37.37900
O           8.49400        25.12700        38.52300
C           7.98200        24.68500        39.78900
C           8.38200        23.30300        40.28000
O           7.82300        22.34200        39.37300
H           7.96900        22.71000        38.45500
C           7.87400        22.96400        -0.39700
O           8.53000        21.81700         0.16300
H           8.04600        21.56700         1.00100
C           7.67500        26.94800        40.48600
O           7.96100        27.72600        39.31400
H           7.73400        28.67700        39.52200
C           8.45200        25.68700        -1.24700
O           7.93500        25.41000         0.06300
C           8.14400        24.09100         0.58700
O           7.35400        24.06000         1.78500
C           3.50100        20.67800         0.27800
C           3.71500        19.27900        42.89900
O           3.49200        18.29300        41.88100
H           3.52600        18.73400        40.98400
C           3.12500        19.01500         2.20700
O           3.55300        17.71200         2.62700
H           3.51700        17.62100         3.62200
C           3.88100        23.06900         1.01000
O           4.32600        23.93400        -0.04500
H           4.22600        24.85900         0.32100
C           4.07700        21.59900         1.34100
O           3.42800        21.42800         2.60900
C           3.60700        20.10900         3.14600
O           2.95500        20.04900         4.42300
C           3.76000        20.42300         5.55100