# freq=raman b3lyp/6-31+g(2d,p) geom=connectivity

483 8364/8364.com

0 1
C           8.21700         7.58700         2.92200
C           7.57100         8.80100         3.57000
O           7.30500         9.86900         2.64900
H           7.32200         9.40100         1.76500
C           8.27800         9.22500         4.84700
O           7.71300        10.36500         5.50900
H           8.31700        10.63700         6.25900
C           8.66900         5.10900         3.53200
O           7.89300         4.39800         2.55600
H           8.10400         3.43000         2.69100
C           8.08300         6.45400         3.92700
O           8.73200         6.85400         5.14300
C           8.14400         8.01200         5.75300
O           8.99500         8.23900         6.88600
C           8.27600         8.00600         8.10600
C           8.73900         6.66600         8.65300
O           8.57900         5.56400         7.74800
H           8.63000         5.92400         6.81600
C           8.24800         6.30300        10.04500
O           9.08700         5.28300        10.60800
H           8.81800         5.13000        11.55900
C           8.26400        10.49100         8.90500
O           8.64200        11.16300         7.69400
H           8.56900        12.13700         7.90700
C           8.69300         9.05000         9.12900
O           8.07000         8.73200        10.38300
C           8.46200         7.48600        10.97600
O           7.65700         7.39000        12.16000
C           8.32500         7.70000        13.39200
C           7.80000         9.03600        13.89200
O           8.19200        10.04300        12.94800
H           7.86100         9.81000        12.03300
C           8.45100         9.52700        15.17500
O           7.99600        10.78400        15.69600
H           8.20000        10.97800        16.65500
C           8.27000         5.21800        14.43600
O           8.27100         4.56500        13.15900
H           8.22700         3.57700        13.30600
C           7.96200         6.70600        14.48300
O           8.66300         7.12600        15.66300
C           8.27300         8.40500        16.18500
O           9.16900         8.56900        17.29500
C           8.54500         8.25200        18.54800
C           9.20200         6.98000        19.06000
O           9.17600         5.86300        18.16100
H           9.08400         6.26800        17.25100
C           8.69400         6.62300        20.44700
O           9.35200         5.54400        21.12600
H           8.78700         5.15100        21.85200
C           8.17500        10.64400        19.40900
O           8.35300        11.49300        18.26600
H           8.20700        12.47900        18.34000
C           8.72600         9.25300        19.67700
O           8.04000         8.88300        20.88200
C           8.78900         7.78500        21.42300
O           7.88400         7.60600        22.52300
C           8.44000         7.69100        23.84300
C           7.75200         8.90800        24.44000
O           7.60800        10.00300        23.52400
H           7.29200         9.74500        22.61100
C           8.20100         9.22200        25.85700
O           7.67200        10.39700        26.48900
H           8.28800        10.67000        27.22700
C           8.78100         5.27900        24.53400
O           8.20300         4.59700        23.41100
H           8.34300         3.60900        23.47700
C           8.10100         6.60200        24.84800
O           8.60000         6.89300        26.16200
C           8.09000         8.05700        26.82800
O           8.85100         8.29300        28.02100
C           8.15600         8.07400        29.25700
C           8.74200         6.81700        29.87900
O           8.65500         5.75300        28.92100
H           8.91400         6.11400        28.02500
C           8.19000         6.43700        31.24400
O           8.87200         5.34200        31.87100
H           8.36200         5.06500        32.68500
C           8.12100        10.59000        29.94900
O           8.76600        11.21500        28.83000
H           8.67800        12.20600        28.92600
C           8.44800         9.14600        30.29500
O           7.80200         8.84700        31.54100
C           8.27900         7.64500        32.16200
O           7.48200         7.44800        33.33900
C           8.09600         7.78500        34.59100
C           7.61600         9.12800        35.11800
O           7.88900        10.10900        34.10700
H           7.54700         9.72300        33.25000
C           8.19800         9.52700        36.46400
O           7.67100        10.65400        37.17900
H           8.10200        10.74700        38.07700
C           8.19200         5.36300        35.49200
O           7.68100         4.71200        34.31900
H           7.75600         3.72900        34.48600
C           7.76400         6.80500        35.70400
O           8.46900         7.18100        36.89600
C           8.07100         8.42100        37.49900
O           8.88100         8.45000        38.68400
C           8.17100         8.06200        39.86900
C           8.56700         6.65400        40.28100
O           8.16000         5.69000        39.29900
H           8.39800         6.03900        38.39300
C           7.93700         6.27200        -0.45400
O           8.43900         5.01400         0.02000
H           8.08800         4.88600         0.94800
C           8.10700        10.52700        40.66500
O           8.67500        11.22500        39.54700
H           8.59100        12.22100        39.58300
C           8.49600         9.08700        -1.13000
O           7.86900         8.70200         0.10200
C           8.20300         7.38100         0.55100
O           7.43700         7.27200         1.75900
C           3.84000         4.13000        42.06100
C           4.23400         2.77400        42.62300
O           3.81500         1.68400        41.78900
H           4.19800         1.87600        40.88600
C           3.82400         2.43300         1.98000
O           4.54500         1.28900         2.45900
H           4.24900         1.16600         3.40700
C           3.70700         6.55700         0.70600
O           4.45900         7.26700        -0.28800
H           4.11900         8.20500        -0.22100
C           4.27000         5.17600         1.00200
O           3.73000         4.83900         2.28800
C           4.16500         3.60800         2.88200
O           3.38600         3.45700         4.07800
C           4.03400         3.64600         5.34400
C           3.70700         5.06600         5.77600
O           3.96400         6.08600         4.80000
H           3.47600         5.78800         3.98000
C           4.39800         5.31700         7.10700
O           3.97500         6.59500         7.60500
H           4.21300         6.74500         8.56400
C           4.23800         1.19600         6.17200
O           3.81800         0.47300         5.00600
H           4.20000        -0.44800         5.08200
C           3.68700         2.59600         6.38700
O           4.27100         2.89500         7.66400
C           3.95500         4.23300         8.07500
O           4.70900         4.25300         9.29600
C           3.99600         4.11400        10.53300
C           4.17300         2.67000        10.97200
O           3.58600         1.70100        10.09000
H           3.90300         2.09600         9.22800
C           3.64400         2.44300        12.37900
O           4.09400         1.17600        12.88000
H           3.83600         1.11900        13.84500
C           4.15200         6.43300        11.29400
O           4.77300         7.22700        10.27200
H           4.56100         8.19700        10.38800
C           4.55100         5.00600        11.63100
O           3.91700         4.87100        12.91100
C           4.08700         3.51800        13.35800
O           3.42500         3.37300        14.62300
C           4.18900         3.75000        15.77800
C           3.88800         5.14100        16.31200
O           4.20400         6.07700        15.27200
H           3.99900         5.76000        14.34600
C           4.57500         5.37400        17.64800
O           4.07100         6.62400        18.14100
H           4.37700         6.78300        19.07900
C           4.20000         1.28200        16.57400
O           3.86600         0.50800        15.41300
H           3.85700        -0.46000        15.66600
C           3.80300         2.72600        16.83400
O           4.38900         2.97800        18.11900
C           4.20600         4.29700        18.65500
O           4.99700         4.40200        19.84700
C           4.39400         4.25000        21.14100
C           4.65400         2.84400        21.65600
O           4.14900         1.83600        20.76800
H           4.28600         2.05500        19.80200
C           4.01100         2.69300        23.02600
O           4.21600         1.35900        23.51400
H           3.93000         1.22000        24.46200
C           4.32100         6.64100        21.86900
O           4.48400         7.21200        20.56200
H           4.33300         8.19900        20.60700
C           4.83700         5.25000        22.19600
O           4.33600         5.01900        23.52100
C           4.48700         3.69900        24.06100
O           3.67800         3.58000        25.24100
C           4.43600         3.77900        26.44300
C           4.17300         5.18200        26.96600
O           4.46500         6.23000        26.03000
H           4.06500         5.96000        25.15500
C           4.79100         5.45800        28.32800
O           4.50600         6.78100        28.80200
H           4.46600         6.74400        29.80100
C           4.41700         1.34400        27.08800
O           3.90900         0.43400        26.10200
H           4.33700        -0.44000        26.33200
C           3.98000         2.75100        27.46500
O           4.64500         3.03500        28.70400
C           4.28800         4.32900        29.21200
O           4.93700         4.35800        30.49200
C           4.09000         4.14300        31.63000
C           4.29700         2.75000        32.20000
O           4.13200         1.79400        31.14200
H           4.60300         2.16100        30.34000
C           3.68100         2.35100        33.53200
O           4.30000         1.15300        34.02000
H           4.22300         0.93600        34.99300
C           4.09400         6.53600        32.43600
O           4.70400         7.17700        31.30600
H           4.73800         8.16400        31.46700
C           4.42500         5.09000        32.77000
O           3.67500         4.73900        33.94200
C           4.10800         3.47400        34.46300
O           3.40300         3.38600        35.71000
C           4.09000         3.59200        36.95300
C           3.67200         4.97100        37.43500
O           3.96000         5.98400        36.46100
H           3.83600         5.54500        35.57100
C           4.13000         5.48200        38.79200
O           3.67200         6.78700        39.17400
H           4.17400         6.98000        40.01800
C           4.03000         1.20400        37.79800
O           3.77000         0.51500        36.56700
H           3.87500        -0.46200        36.75200
C           3.64900         2.65200        38.06300
O           3.96500         3.08300        39.39400
C           3.61600         4.42700        39.75700
O           4.55400         4.37900        40.84200
C           8.08100        15.82900         2.85800
C           7.57700        17.19800         3.28300
O           7.96800        18.25500         2.39300
H           7.68800        17.87500         1.51200
C           8.13600        17.56500         4.64800
O           7.51300        18.73200         5.20300
H           7.98800        18.97800         6.04900
C           8.09000        13.30300         3.67300
O           7.28800        12.67800         2.66000
H           7.37800        11.69700         2.83200
C           7.88400        14.78500         3.94500
O           8.67000        15.20400         5.07000
C           8.02700        16.37700         5.59100
O           8.58800        16.69900         6.87200
C           7.94600        16.32500         8.10000
C           8.51100        15.03900         8.68000
O           8.36800        13.99600         7.70500
H           8.76100        14.38200         6.87000
C           7.95500        14.58500        10.02000
O           8.56200        13.43300        10.62400
H           8.27400        13.39200        11.58100
C           7.65600        18.73600         8.83900
O           8.34600        19.46100         7.81000
H           8.19900        20.44800         7.88500
C           8.09200        17.33300         9.22900
O           7.40100        16.96600        10.43200
C           8.02800        15.78400        10.95100
O           7.32800        15.54200        12.18000
C           7.93000        15.93000        13.42400
C           7.38700        17.26700        13.90200
O           7.46900        18.28400        12.89300
H           7.28100        17.80400        12.03700
C           7.91500        17.61500        15.28400
O           7.27100        18.83900        15.66600
H           7.56200        19.08000        16.59200
C           7.98800        13.46100        14.23900
O           7.86800        12.72400        13.01400
H           8.13800        11.76600        13.10900
C           7.51400        14.89000        14.45200
O           8.03600        15.24100        15.74100
C           7.59200        16.50000        16.26600
O           8.53000        16.62700        17.34400
C           7.90600        16.29300        18.59300
C           8.59900        15.06800        19.16700
O           8.40700        14.04700        18.17800
H           8.77600        14.37800        17.30900
C           8.03200        14.64000        20.51100
O           8.69200        13.48100        21.03900
H           8.27300        13.29700        21.92800
C           7.45400        18.65100        19.38100
O           8.00000        19.45800        18.32800
H           7.85000        20.38700        18.66700
C           8.05200        17.29700        19.72500
O           7.41200        16.96700        20.96600
C           8.06400        15.80100        21.49200
O           7.30800        15.65900        22.70300
C           7.90800        15.99400        23.96300
C           7.22700        17.21500        24.55900
O           7.24400        18.27200        23.58900
H           7.22900        17.89200        22.66400
C           7.80100        17.65900        25.89500
O           7.14500        18.77100        26.52300
H           7.47900        19.01800        27.43200
C           8.22100        13.48300        24.72100
O           7.60800        12.96000        23.53400
H           7.64600        11.96700        23.64500
C           7.75700        14.90100        25.00900
O           8.40300        15.34900        26.20900
C           7.75800        16.46700        26.83700
O           8.63800        16.65300        27.95500
C           8.05800        16.25300        29.20500
C           8.71200        14.97600        29.70700
O           8.58100        14.03200        28.63400
H           8.61500        14.59600        27.81000
C           8.09600        14.55300        31.03100
O           8.75700        13.36600        31.49400
H           8.44400        13.09300        32.40300
C           7.72000        18.71600        29.88500
O           8.49300        19.49900        28.96500
H           8.19000        20.43300        29.15600
C           8.26400        17.34300        30.24400
O           7.61700        16.88900        31.44200
C           8.22200        15.71500        32.00200
O           7.42400        15.43900        33.16200
C           8.00900        15.86200        34.40300
C           7.45900        17.20000        34.86800
O           7.87000        18.29000        34.03000
H           7.54500        18.06800        33.11000
C           7.97500        17.63800        36.22900
O           7.37200        18.81900        36.77700
H           7.54900        18.76700        37.76000
C           8.67300        13.49900        35.13500
O           8.17100        12.68000        34.06900
H           8.13700        11.72000        34.34800
C           7.92900        14.78100        35.46900
O           8.54200        15.27200        36.67000
C           7.85500        16.43600        37.15200
O           8.44000        16.79700        38.41200
C           7.89000        16.29900        39.64000
C           8.34800        14.91900        40.08400
O           8.01600        13.91000        39.12000
H           8.25300        14.24000        38.20600
C           7.89500        14.50400        -0.59200
O           8.61000        13.39100        -0.03400
H           8.23700        13.22900         0.88000
C           7.63000        18.62600        40.52100
O           7.97000        19.32200        39.31300
H           7.92500        20.28800        39.56800
C           8.30700        17.28500        -1.35600
O           7.68800        16.83500        -0.14200
C           8.14500        15.60100         0.43100
O           7.50200        15.27000         1.67000
C           3.66000        12.44000         0.18200
C           4.00200        11.03100        42.71600
O           3.74800        10.03700        41.71200
H           3.99700        10.49200        40.85800
C           3.30200        10.73600         1.96900
O           3.47700         9.40100         2.46400
H           3.18300         9.29800         3.41400
C           3.67200        14.85400         0.92900
O           3.97100        15.56100        -0.28400
H           4.01300        16.53000        -0.04100
C           4.10000        13.43100         1.24800
O           3.57300        13.16400         2.55500
C           3.83400        11.80000         2.91600
O           3.21000        11.63300         4.19700
C           4.12400        11.75700         5.29600
C           3.88600        13.15100         5.85300
O           4.06000        14.19800         4.88700
H           3.94700        13.83900         3.96100
C           4.48800        13.48700         7.20800
O           4.18200        14.83500         7.59300
H           4.37600        14.95600         8.56700
C           4.24300         9.41600         6.15800
O           3.49900         8.62800         5.21700
H           3.76600         7.66700         5.14400
C           3.81000        10.84000         6.46700
O           4.44400        11.18500         7.70700
C           4.00300        12.45400         8.21100
O           4.78400        12.38600         9.41300
C           3.99100        12.22900        10.59900
C           4.41900        10.87500        11.14100
O           4.08700         9.83800        10.20700
H           4.42000        10.21400         9.34200
C           3.71800        10.53600        12.44700
O           4.21300         9.31100        13.00600
H           4.09800         9.28400        13.99900
C           3.63200        14.50000        11.33000
O           4.07900        15.21400        10.16800
H           3.87200        16.17000        10.37500
C           4.41100        13.23700        11.65600
O           3.84700        12.90800        12.93400
C           4.15400        11.60100        13.44000
O           3.43200        11.47300        14.67400
C           4.16600        11.77900        15.86800
C           3.87300        13.16800        16.41100
O           4.08900        14.24500        15.48800
H           3.78500        14.08600        14.54800
C           4.55500        13.54200        17.71700
O           4.29300        14.86200        18.21500
H           4.46500        14.96300        19.19400
C           4.62200         9.53700        16.81000
O           4.40300         8.77300        15.61500
H           4.38000         7.79200        15.80400
C           3.80400        10.80700        16.97900
O           4.30300        11.19200        18.26800
C           4.14800        12.52700        18.77200
O           4.83500        12.55200        20.03200
C           4.01700        12.36700        21.19700
C           4.30200        10.97100        21.72600
O           3.99200         9.92000        20.79900
H           4.21600        10.29600        19.90000
C           3.74000        10.68900        23.11000
O           4.08200         9.36900        23.55700
H           4.11100         9.33600        24.55600
C           3.63900        14.65000        21.95000
O           4.04200        15.41400        20.80400
H           3.71300        16.34900        20.93500
C           4.45400        13.39700        22.22500
O           3.99100        13.15100        23.56000
C           4.29000        11.81100        23.97500
O           3.57400        11.69600        25.21400
C           4.23000        12.02900        26.44600
C           3.76400        13.38900        26.93900
O           4.20700        14.43700        26.06400
H           3.79200        14.28000        25.16800
C           4.42100        13.69700        28.27500
O           3.74800        14.85300        28.79400
H           4.34200        15.20700        29.51700
C           4.42800         9.58900        27.18700
O           3.85600         8.79600        26.13700
H           4.10500         7.84000        26.28800
C           3.87500        10.97400        27.48200
O           4.49200        11.33600        28.72600
C           4.08500        12.59900        29.27100
O           4.71000        12.75700        30.55300
C           3.88400        12.31500        31.64000
C           4.42700        10.99400        32.16100
O           4.44400         9.93500        31.19200
H           4.68300        10.32100        30.30100
C           3.76400        10.61000        33.47300
O           4.39200         9.45400        34.04600
H           3.95100         9.27700        34.92600
C           3.77800        14.77500        32.55900
O           4.18400        15.61500        31.46800
H           3.87200        16.55800        31.58000
C           4.24300        13.33600        32.70800
O           3.63700        13.02400        33.97100
C           4.00600        11.73100        34.47100
O           3.24300        11.58700        35.67900
C           3.97600        11.85400        36.88300
C           3.52500        13.21200        37.39600
O           3.57300        14.22400        36.37900
H           3.31500        13.81300        35.50400
C           4.10600        13.62600        38.73800
O           3.83000        14.95600        39.20000
H           4.05700        15.06000        40.16800
C           3.92000         9.44500        37.61900
O           3.64400         8.76300        36.38600
H           3.77000         7.78600        36.55600
C           3.54500        10.87700        37.96400
O           4.09800        11.27100        39.22800
C           3.69100        12.55200        39.73000
O           4.27300        12.83900        41.01100
C           8.10200        23.95800         3.05000
C           7.47700        25.27600         3.47700
O           7.57000        26.30300         2.47900
H           7.56800        25.91400         1.55800
C           7.97100        25.62600         4.87200
O           7.28400        26.77500         5.38800
H           7.75400        27.07500         6.21800
C           8.43300        21.56100         3.83000
O           8.03900        20.77100         2.69900
H           8.06500        19.80000         2.93700
C           7.80700        22.91600         4.11700
O           8.29400        23.31000         5.40800
C           7.67900        24.52000         5.87300
O           8.40800        24.79200         7.07900
C           7.67000        24.47500         8.26800
C           8.13300        23.10100         8.72500
O           8.16300        22.03300         7.76700
H           8.36500        22.53600         6.92700
C           7.59700        22.77400        10.10900
O           8.05400        21.50900        10.61000
H           7.54300        21.34900        11.45500
C           7.64600        26.90600         8.95600
O           7.79600        27.64400         7.73500
H           7.81000        28.63300         7.88200
C           8.17500        25.51300         9.25800
O           7.70000        25.14000        10.55900
C           8.07500        23.85200        11.06700
O           7.16600        23.82500        12.17700
C           7.70300        24.01400        13.49500
C           7.37200        25.43100        13.93300
O           7.70000        26.48300        13.01400
H           7.56200        26.10600        12.09800
C           7.86400        25.68600        15.34800
O           7.32300        26.93500        15.80400
H           7.47900        27.03400        16.78700
C           7.72400        21.54000        14.13200
O           7.14100        21.01800        12.92900
H           7.14600        20.02700        13.06100
C           7.30400        22.95200        14.50700
O           7.82500        23.25100        15.81000
C           7.57200        24.56400        16.33100
O           8.28000        24.82600        17.55100
C           7.54100        24.62300        18.76400
C           7.86000        23.22800        19.27500
O           7.26400        22.24200        18.42000
H           7.32100        22.48800        17.45200
C           7.46400        22.86900        20.69800
O           8.11800        21.66100        21.11400
H           7.78200        21.45600        22.03300
C           7.41500        26.96000        19.52900
O           7.85900        27.51700        18.28400
H           7.75700        28.51200        18.28600
C           8.03100        25.60000        19.82000
O           7.58000        25.29000        21.14700
C           7.92600        23.98200        21.62500
O           7.09000        23.87100        22.78600
C           7.66400        24.17800        24.06500
C           7.25800        25.56600        24.53300
O           7.61200        26.56700        23.56900
H           7.26800        26.26600        22.67900
C           7.68700        25.88100        25.95700
O           7.01600        27.05800        26.42900
H           7.32700        27.24500        27.36100
C           7.88900        21.74100        24.93800
O           7.59300        21.11600        23.68000
H           7.56500        20.12600        23.81900
C           7.34300        23.14600        25.13300
O           7.94200        23.53300        26.37800
C           7.46700        24.75700        26.95600
O           8.40000        24.98800        28.02200
C           7.94200        24.64000        29.33600
C           8.49200        23.29800        29.79000
O           8.29200        22.32200        28.75800
H           8.24300        22.74900        27.85500
C           7.95000        22.91800        31.15900
O           8.37100        21.66300        31.71400
H           8.02300        21.56000        32.64600
C           7.56500        27.05100        30.19600
O           7.75600        27.68200        28.92100
H           7.58100        28.66600        28.97500
C           8.25000        25.70600        30.37500
O           7.78400        25.27500        31.66200
C           8.23200        24.01200        32.17600
O           7.43600        23.81600        33.35300
C           7.94300        24.16300        34.64900
C           7.28200        25.47200        35.04900
O           7.39100        26.54100        34.09900
H           7.35300        26.13300        33.18700
C           7.57300        25.81600        36.50100
O           6.95300        26.96100        37.10400
H           7.43800        27.16300        37.95500
C           8.03900        21.68200        35.42000
O           7.66600        21.02800        34.19800
H           7.76300        20.06900        34.46600
C           7.47900        23.08200        35.61200
O           7.93500        23.38900        36.93800
C           7.46700        24.64100        37.46000
O           8.36000        24.83900        38.56600
C           7.76700        24.53300        39.83600
C           8.40400        23.21200        40.23700
O           8.03200        22.16800        39.32600
H           8.12000        22.52400        38.39500
C           7.93600        22.83100        -0.43400
O           8.50700        21.59400         0.01900
H           8.01900        21.41000         0.87200
C           7.73300        26.94500        40.60400
O           8.34400        27.56400        39.46200
H           8.18500        28.55000        39.51700
C           8.16700        25.52500        -1.15800
O           7.74400        25.07500         0.13700
C           8.30600        23.85100         0.63100
O           7.56000        23.49600         1.80500
C           3.80900        20.47800         0.11500
C           4.31900        19.13200        42.68700
O           3.96400        18.14700        41.70500
H           4.21000        18.65500        40.88000
C           3.76400        18.87100         2.01300
O           4.03100        17.59000         2.60100
H           3.57000        17.47200         3.48000
C           3.21000        22.82200         0.80200
O           3.84900        23.66900        -0.16500
H           3.50200        24.59700        -0.03700
C           4.01600        21.57900         1.14200
O           3.61000        21.27300         2.48300
C           4.01700        19.99800         3.00200
O           3.21400        19.82600         4.17800
C           3.94400        20.10400         5.38200