# freq=raman b3lyp/6-31+g(2d,p) geom=connectivity

473 8000.com

0 1
C           8.07500         8.01200        23.97600
C           7.52100         9.35500        24.42000
O           8.08900        10.28300        23.48400
H           7.80900         9.96600        22.57800
C           8.05900         9.72700        25.79200
O           7.37500        10.84600        26.37400
H           7.67800        11.02400        27.31000
C           8.18900         5.56200        24.68400
O           7.68000         4.72700        23.63400
H           7.92900         3.77900        23.83200
C           7.65400         6.95300        24.98100
O           8.24100         7.31300        26.24000
C           7.72000         8.56500        26.71100
O           8.45600         8.80400        27.91900
C           7.82500         8.39700        29.14200
C           8.31600         7.02000        29.55900
O           7.73000         6.05500        28.67300
H           7.86500         6.44400        27.76200
C           8.00100         6.62300        30.99200
O           8.73000         5.44700        31.37300
H           8.56900         5.13700        32.31100
C           7.72600        10.81800        30.04900
O           8.26700        11.54000        28.93300
H           8.33500        12.52300        29.10100
C           8.18400         9.38100        30.24300
O           7.61600         8.98700        31.50100
C           8.29200         7.79200        31.92000
O           7.61300         7.45900        33.13900
C           8.21800         7.78100        34.40000

