# freq=raman b3lyp/6-31+g(2d,p) geom=connectivity

320 7780/7780.com

0 1
C           8.20500         7.80800         3.02700
C           7.64500         9.05900         3.68500
O           7.61000         9.98200         2.58800
H           7.48700         9.42600         1.76600
C           8.17500         9.38700         5.07100
O           7.52500        10.47100         5.74900
H           8.08200        10.64100         6.56200
C           8.41200         5.36100         3.66100
O           7.80300         4.68700         2.55000
H           8.03900         3.71600         2.57600
C           8.02000         6.75900         4.11100
O           8.69100         7.06400         5.34200
C           8.14900         8.20400         6.02500
O           9.07900         8.52900         7.06900
C           8.58300         8.10700         8.34800
C           9.10200         6.82200         8.97200
O           8.71700         5.84200         7.99700
H           8.89100         6.18600         7.07400
C           8.58300         6.48200        10.36000
O           9.43500         5.56200        11.05700
H           8.95500         5.22100        11.86500
C           8.28200        10.61400         9.10400
O           9.05100        11.22000         8.05500
H           8.78500        12.18300         8.01400
C           8.78600         9.20700         9.37800
O           8.09100         8.80000        10.56600
C           8.66800         7.69400        11.27400
O           7.85300         7.42900        12.42400
C           8.33600         7.76700        13.73300
C           7.80600         9.12400        14.16800
O           8.26800        10.14500        13.27200
H           7.86700         9.89700        12.39000
C           8.35600         9.58100        15.50900
O           7.40700        10.50000        16.06900
H           7.76800        11.00700        16.85200
C           8.74200         5.37100        14.55100
O           8.08500         4.50900        13.61000
H           8.32400         3.56000        13.81500
C           8.24400         6.76900        14.87600
O           8.99900         7.21400        16.01300
C           8.39700         8.42400        16.49400
O           9.15700         8.75900        17.66400
C           8.49400         8.37000        18.87500
C           9.01700         7.07700        19.47700
O           8.92700         5.99700        18.53600
H           9.23000         6.37500        17.66200
C           8.45800         6.64000        20.82100
O           9.02600         5.44000        21.36700
H           8.51800         5.22400        22.20100
C           8.21600        10.76900        19.63400
O           8.49700        11.43200        18.39300
H           8.49200        12.42900        18.47100
C           8.66700         9.36700        20.01000
O           7.97000         8.99900        21.20800
C           8.57900         7.82500        21.76600
O           7.69400         7.71100        22.89000
C           8.22100         7.93700        24.20600
C           7.55600         9.22800        24.65500
O           7.69600        10.25000        23.65900
H           7.53800         9.87600        22.74500
C           8.05400         9.55500        26.05300
O           7.29600        10.66700        26.55200
H           7.68100        10.90700        27.44300
C           8.44100         5.38500        24.77200
O           7.78600         4.75500        23.66100
H           7.96000         3.77400        23.75600
C           7.99700         6.78300        25.17000
O           8.53900         7.25000        26.41400
C           7.88900         8.38300        27.00700
O           8.63200         8.68900        28.19600
C           7.96000         8.30300        29.40400
C           8.45500         6.92000        29.79500
O           8.25800         5.90200        28.80400
H           8.70300         6.32300        28.01400
C           8.11600         6.60500        31.24300
O           8.77300         5.46400        31.81400
H           8.29800         5.35200        32.68700
C           7.51800        10.73000        30.02600
O           8.15800        11.57900        29.06200
H           7.87400        12.52900        29.18700
C           8.15900         9.41100        30.42500
O           7.56100         8.90400        31.62600
C           8.25600         7.78300        32.19200
O           7.47000         7.52800        33.36600
C           8.06100         7.84400        34.63500
C           7.43200         9.17200        35.02400
O           7.63200        10.31900        34.18600
H           7.30800         9.96500        33.30900
C           7.93700         9.64500        36.37700
O           7.40900        10.77100        37.09300
H           8.09200        11.04300        37.77100
C           8.32100         5.43900        35.23500
O           7.51000         4.74700        34.27400
H           7.69400         3.76900        34.37500
C           7.80300         6.79000        35.69900
O           8.41300         7.27400        36.90500
C           7.91700         8.52500        37.40400
O           8.76000         8.82100        38.52800
C           8.18200         8.29400        39.73100
C           8.79200         6.98500        40.20400
O           8.39000         5.87500        39.38800
H           8.63900         6.16500        38.46400
C           8.46900         6.57100        -0.43300
O           8.99800         5.35700         0.11900
H           8.50000         5.12400         0.95400
C           7.70500        10.66100        40.70300
O           8.03400        11.46700        39.56200
H           8.00000        12.45700        39.69800
C           8.35200         9.29400        -1.19400
O           7.80700         8.78500         0.03200
C           8.65100         7.73500         0.52800
O           7.86100         7.42900         1.68700
C           4.13200         4.44700         0.08300
C           4.29500         2.99300        42.56500
O           3.52100         2.19400        41.65900
H           3.79700         2.37900        40.71600
C           3.70100         2.84000         1.89100
O           4.05000         1.51700         2.32300
H           3.79800         1.35000         3.27600
C           4.14900         6.83400         0.84600
O           4.52000         7.51100        -0.36400
H           4.23300         8.45400        -0.19700
C           4.66400         5.42900         1.11400
O           4.16400         5.10100         2.41900
C           4.33000         3.76600         2.91900
O           3.59900         3.65500         4.14800
C           4.26500         3.78600         5.41300
C           3.98000         5.20200         5.88700
O           4.54300         6.19100         5.01400
H           4.22300         5.93700         4.10100
C           4.47500         5.49700         7.29300
O           4.04500         6.75000         7.84400
H           4.65600         6.96400         8.60600
C           4.44500         1.50700         5.96200
O           3.76800         0.63200         5.04700
H           4.28300        -0.22500         5.03600
C           3.98700         2.82700         6.55900
O           4.71200         3.19700         7.74200
C           4.08900         4.38400         8.25400
O           4.92200         4.50100         9.41600
C           4.30200         4.29600        10.69400
C           4.63500         2.90600        11.21300
O           4.20300         1.92700        10.25800
H           4.56200         2.21300         9.36900
C           3.86600         2.64400        12.49700
O           4.04900         1.32500        13.03200
H           3.77400         1.35200        13.99300
C           4.56300         6.68700        11.46900
O           5.08100         7.36600        10.31600
H           4.81900         8.31700        10.47800
C           4.91700         5.23100        11.72200
O           4.19800         4.99400        12.94100
C           4.43600         3.67600        13.45700
O           3.82900         3.69700        14.75700
C           4.49300         3.98100        15.99700
C           4.08600         5.39700        16.36800
O           4.42400         6.41600        15.41600
H           4.12900         6.18200        14.49000
C           4.70400         5.64300        17.73500
O           4.02000         6.79200        18.25800
H           4.29100         6.95700        19.20600
C           4.43100         1.48900        16.73900
O           3.95200         0.78400        15.58400
H           4.25200        -0.16100        15.71500
C           3.92100         2.91000        16.91200
O           4.47500         3.27600        18.18500
C           4.21700         4.58600        18.71200
O           4.87700         4.66500        19.98400
C           3.98900         4.50600        21.10000
C           4.19100         3.08800        21.61100
O           4.06000         2.01400        20.66800
H           4.14300         2.41100        19.75400
C           3.58000         2.69400        22.94600
O           3.93400         1.40300        23.46000
H           3.63400         1.39500        24.41400
C           4.00300         6.85700        21.99500
O           4.45300         7.69700        20.92300
H           4.29300         8.64700        21.19300
C           4.39800         5.41200        22.25000
O           3.84500         5.06100        23.52700
C           4.09700         3.71200        23.94900
O           3.40400         3.77900        25.20400
C           4.07600         3.95300        26.46000
C           3.73400         5.33700        26.98500
O           3.70100         6.36600        25.98500
H           3.58800         5.97700        25.07100
C           4.55000         5.57100        28.24600
O           4.38300         6.90000        28.76100
H           4.80200         7.00600        29.66200
C           4.11000         1.49500        27.27700
O           3.87300         0.77900        26.05700
H           4.12800        -0.18000        26.17900
C           3.60200         2.91500        27.46400
O           4.19900         3.17300        28.74300
C           4.06500         4.51700        29.22800
O           4.80800         4.44900        30.45300
C           3.98900         4.32500        31.62500
C           4.14600         2.90700        32.14900
O           3.71200         2.00500        31.12100
H           4.15200         2.34600        30.29100
C           3.47900         2.62400        33.48500
O           4.00500         1.42400        34.06900
H           3.69300         1.29100        35.01000
C           4.00900         6.76000        32.39900
O           4.62700         7.52200        31.35200
H           4.51300         8.49300        31.56300
C           4.40800         5.32300        32.69300
O           3.62900         5.11400        33.87900
C           3.83300         3.79000        34.39400
O           3.25600         3.73800        35.70700
C           4.06900         4.07000        36.84200
C           3.81700         5.48400        37.34000
O           4.11300         6.47100        36.34200
H           3.80900         6.09200        35.46900
C           4.62500         5.66200        38.61500
O           4.42600         6.97700        39.15300
H           4.83700         6.99800        40.06500
C           3.97200         1.68200        37.67100
O           3.34200         0.99200        36.58200
H           3.36400         0.03600        36.87500
C           3.76200         3.14800        38.01100
O           4.47500         3.31200        39.24600
C           4.23000         4.65600        39.68400
O           4.86000         4.80100        40.96600
C           8.22000        16.09100         3.09400
C           7.72400        17.44400         3.57900
O           8.19500        18.47500         2.69900
H           8.19800        18.10100         1.77200
C           8.11400        17.76400         5.01300
O           7.34900        18.81600         5.61900
H           7.89900        19.05600         6.41800
C           8.10000        13.55200         3.79800
O           7.38600        12.75500         2.84200
H           7.47300        11.79300         3.10100
C           7.83000        15.01800         4.09700
O           8.44500        15.34900         5.35100
C           7.91400        16.55700         5.91500
O           8.75200        16.70800         7.07000
C           8.10800        16.28200         8.28000
C           8.67600        14.99000         8.84400
O           8.49500        13.98100         7.84000
H           8.71200        14.41700         6.96700
C           8.11000        14.54000        10.18100
O           8.72200        13.38800        10.77800
H           8.26500        13.05400        11.60300
C           7.79500        18.68200         9.08000
O           8.25400        19.54900         8.03200
H           8.11800        20.50500         8.29300
C           8.36800        17.30500         9.37300
O           7.65800        16.93900        10.56600
C           8.25600        15.74700        11.09500
O           7.39100        15.54900        12.22200
C           7.94300        15.96500        13.48000
C           7.43200        17.29700        14.00400
O           7.61700        18.27000        12.96700
H           7.28200        17.85800        12.12000
C           8.10400        17.65100        15.32000
O           7.63600        18.85400        15.94700
H           7.98300        18.88700        16.88400
C           8.11100        13.46800        14.32400
O           7.80700        12.77100        13.10700
H           7.89700        11.78700        13.26200
C           7.57200        14.88100        14.48000
O           7.97700        15.19900        15.82000
C           7.71100        16.53400        16.27400
O           8.61300        16.58600        17.38900
C           7.96200        16.39700        18.65400
C           8.44400        15.08400        19.24700
O           8.35200        14.03200        18.27600
H           8.57600        14.43400        17.38800
C           7.92500        14.68500        20.61900
O           8.61100        13.55100        21.16700
H           8.27200        13.31900        22.07800
C           7.92900        18.82600        19.49600
O           8.30900        19.65100        18.38500
H           8.14400        20.61800        18.57500
C           8.31500        17.37900        19.75900
O           7.67100        17.12000        21.01500
C           8.09200        15.86400        21.56500
O           7.28900        15.60800        22.72600
C           7.82000        16.11200        23.96000
C           7.26300        17.46900        24.35800
O           7.74300        18.50600        23.49000
H           7.69700        18.11900        22.56900
C           7.65700        17.73000        25.80200
O           7.29100        19.03400        26.27700
H           7.51500        19.15400        27.24400
C           8.32900        13.73500        24.76200
O           7.91800        13.01700        23.59000
H           7.91800        12.04200        23.81300
C           7.51100        15.00200        24.95200
O           7.68300        15.33900        26.33600
C           7.22100        16.63100        26.75700
O           8.11800        16.87100        27.85100
C           7.71900        16.49500        29.17700
C           8.34800        15.21500        29.70300
O           7.82600        14.16300        28.87800
H           7.87700        14.57700        27.96900
C           8.07100        14.77900        31.13200
O           8.88200        13.68900        31.59200
H           8.55800        13.32100        32.46400
C           7.81200        18.92700        29.97900
O           8.48400        19.53000        28.86400
H           8.46500        20.52500        28.95600
C           8.24800        17.48700        30.19900
O           7.88600        17.13200        31.54100
C           8.46200        15.92200        32.05500
O           7.72600        15.59000        33.24100
C           8.04100        16.06600        34.55800
C           7.52600        17.41400        35.03600
O           8.03200        18.37500        34.09800
H           7.75100        18.17000        33.16000
C           7.96400        17.80400        36.43800
O           7.18000        18.87900        36.97600
H           7.46300        19.08700        37.91200
C           8.10600        13.65100        35.24600
O           7.90900        12.92100        34.02700
H           8.06700        11.97300        34.30400
C           7.67600        15.05600        35.63300
O           8.28900        15.44300        36.87200
C           7.77000        16.66200        37.42300
O           8.57200        16.85000        38.59700
C           8.05600        16.57300        39.90700
C           8.56900        15.22400        40.38300
O           8.44000        14.18900        39.39800
H           8.70300        14.55300        38.50500
C           8.06800        14.84000        -0.29900
O           8.84000        13.69900         0.10600
H           8.30200        13.13500         0.73200
C           7.66700        18.93700        40.82100
O           7.71900        19.60300        39.55100
H           8.15100        20.48700        39.72600
C           8.43100        17.62600        -1.11500
O           7.99800        17.26000         0.20300
C           8.38500        15.96200         0.67600
O           7.56700        15.81500         1.84600
C           4.13300        12.31000         0.15700
C           4.13700        10.88700        42.75900
O           3.47200        10.06200        41.79100
H           3.93500        10.26300        40.92700
C           3.75700        10.79600         2.16500
O           4.38500         9.57900         2.59400
H           4.14200         9.44900         3.55500
C           3.84300        14.69400         0.70900
O           4.29400        15.50000        -0.39000
H           3.92400        16.38300        -0.10000
C           4.51700        13.40200         1.14100
O           3.95600        13.19100         2.44500
C           4.22900        11.92600         3.06500
O           3.43100        11.89300         4.25700
C           4.16100        12.02900         5.48600
C           3.89400        13.43000         6.01200
O           4.13000        14.40000         4.98200
H           4.03200        14.09600         4.03400
C           4.41500        13.74000         7.40600
O           4.16400        15.10300         7.77800
H           4.36800        15.22900         8.74900
C           3.90800         9.64200         6.45100
O           3.93700         8.78900         5.29800
H           4.40200         7.94800         5.57400
C           3.56000        11.11900         6.54400
O           4.11200        11.34200         7.84900
C           3.90100        12.66900         8.35400
O           4.62800        12.74700         9.58900
C           3.81700        12.48200        10.74300
C           4.30300        11.08300        11.08300
O           4.01700         9.99600        10.19100
H           3.78600        10.28400         9.26200
C           3.70600        10.72400        12.43400
O           4.36400         9.54100        12.91100
H           3.93000         9.39100        13.79900
C           3.79100        14.89300        11.50200
O           4.28500        15.72000        10.43800
H           3.83700        16.59500        10.62400
C           4.16600        13.46200        11.85100
O           3.45900        13.02700        13.02100
C           4.01600        11.78500        13.47800
O           3.36400        11.56000        14.73700
C           3.91900        12.07900        15.95400
C           3.34600        13.41500        16.39700
O           3.59000        14.41800        15.40000
H           3.42200        13.90300        14.55900
C           4.08000        13.76300        17.68100
O           3.46100        14.98200        18.11800
H           3.66200        15.19200        19.07500
C           4.05900         9.60500        16.69700
O           3.69800         8.82900        15.54500
H           4.12600         7.93100        15.65400
C           3.59400        11.02000        16.99600
O           4.25100        11.44100        18.20100
C           3.79100        12.69600        18.72400
O           4.41400        12.96500        19.98800
C           3.72400        12.68100        21.21400
C           4.19800        11.33500        21.73900
O           3.79000        10.35500        20.77400
H           4.20100        10.66100        19.91600
C           3.69300        10.82400        23.07900
O           4.20000         9.58800        23.60200
H           4.01300         9.59900        24.58500
C           3.62000        15.06000        21.88400
O           4.07000        15.74900        20.70800
H           3.82400        16.69700        20.90800
C           4.00200        13.66200        22.34200
O           3.39100        13.25600        23.57500
C           3.75700        11.96400        24.08200
O           2.95800        11.79000        25.26100
C           3.74000        11.91700        26.45800
C           3.51200        13.30000        27.04400
O           4.02200        14.28200        26.13100
H           3.64800        14.10200        25.22100
C           4.20000        13.66500        28.35000
O           3.76300        14.91000        28.91500
H           3.99300        14.81300        29.88300
C           3.94200         9.47700        27.17100
O           3.38200         8.86600        25.99900
H           3.44900         7.87000        26.06300
C           3.53600        10.88900        27.55900
O           4.21800        11.17800        28.78800
C           3.88400        12.49100        29.26100
O           4.54800        12.75800        30.50500
C           3.90600        12.50900        31.76300
C           4.17200        11.09400        32.25300
O           4.01000        10.03100        31.30300
H           3.98500        10.44000        30.39000
C           3.57200        10.70500        33.59400
O           4.07300         9.48600        34.16000
H           3.72900         9.43800        35.09800
C           3.81700        14.84200        32.64500
O           4.11700        15.56400        31.44100
H           3.89400        16.52800        31.58600
C           4.35100        13.43900        32.88000
O           3.71100        13.08800        34.11600
C           4.03500        11.76800        34.57700
O           3.26500        11.84100        35.78600
C           4.07500        12.03000        36.95600
C           3.79900        13.39500        37.56500
O           4.12900        14.30100        36.50200
H           3.78600        13.91600        35.64500
C           4.63300        13.67400        38.80500
O           4.58900        15.05400        39.19700
H           4.65000        15.07300        40.19500
C           4.08800         9.67600        37.68400
O           3.25000         8.96700        36.76000
H           3.58300         8.02800        36.67200
C           3.59600        11.07100        38.03300
O           4.29900        11.29000        39.26400
C           4.06600        12.62200        39.74400
O           4.78300        12.64000        40.98700
C           8.07000        24.14700         3.09000
C           7.51100        25.50100         3.49500
O           7.98200        26.49100         2.56900
H           7.85200        26.29700         1.59700
C           7.88200        25.82800         4.93200
O           7.04200        26.93800         5.28200
H           7.25300        27.06400         6.25100
C           8.33400        21.72400         3.80400
O           7.59700        21.04100         2.77900
H           7.69800        20.05100         2.88000
C           7.71800        23.07900         4.11300
O           8.29300        23.48000         5.36500
C           7.69700        24.67000         5.90000
O           8.41600        24.96500         7.10700
C           7.91700        24.60200         8.40200
C           8.54900        23.29400         8.84900
O           8.36600        22.18800         7.95300
H           8.50100        22.55900         7.03500
C           8.04900        22.92900        10.23800
O           8.53900        21.70200        10.79800
H           7.90100        21.50700        11.54300
C           8.07200        27.02000         9.10600
O           7.96600        27.56100         7.78100
H           7.79500        28.54300         7.85900
C           8.50300        25.59200         9.39600
O           7.86900        25.35900        10.66200
C           8.25400        24.08600        11.20200
O           7.31600        23.94600        12.27900
C           7.92100        24.27600        13.53700
C           7.31900        25.50200        14.20500
O           7.33100        26.56800        13.24400
H           7.20400        26.16700        12.33700
C           8.01800        25.91200        15.49100
O           7.31000        27.05100        16.00300
H           7.54600        27.24200        16.95500
C           8.23000        21.82200        14.12400
O           7.44800        21.17100        13.11300
H           7.50600        20.18000        13.23600
C           7.75400        23.19000        14.58700
O           8.35600        23.48900        15.85500
C           7.91100        24.72500        16.43300
O           8.65300        24.93300        17.64400
C           7.99500        24.66200        18.89000
C           8.38400        23.28500        19.40300
O           8.00100        22.23800        18.49900
H           8.35300        22.41200        17.58000
C           7.90700        22.87900        20.78800
O           8.57400        21.70500        21.27100
H           8.21400        21.54800        22.19100
C           7.82200        27.03700        19.73300
O           8.38900        27.67700        18.58100
H           8.12700        28.64000        18.51500
C           8.35100        25.63800        20.00000
O           7.70000        25.28300        21.22800
C           7.90600        23.99300        21.82200
O           6.99200        23.82300        22.91500
C           7.60000        24.17800        24.16600
C           7.15900        25.57200        24.58200
O           7.66700        26.50200        23.61500
H           7.41200        26.07900        22.74600
C           7.76300        25.99200        25.91200
O           7.15700        27.12700        26.54700
H           7.56700        27.26700        27.44900
C           7.97500        21.77800        24.98600
O           7.55600        21.12200        23.78100
H           7.70100        20.13700        23.87300
C           7.26000        23.10400        25.18700
O           7.85300        23.47900        26.43900
C           7.52900        24.81600        26.84600
O           8.27400        25.01500        28.05700
C           7.72200        24.69300        29.34100
C           8.30700        23.38400        29.84600
O           7.93700        22.25000        29.04800
H           7.68400        22.49200        28.11200
C           7.92200        22.97800        31.25900
O           8.57000        21.80300        31.77000
H           8.14600        21.54200        32.63700
C           7.76100        27.17700        30.15100
O           7.95000        27.76000        28.85300
H           8.06000        28.74100        29.01600
C           8.17700        25.72900        30.35600
O           7.69400        25.32700        31.64700
C           8.25300        24.12600        32.19900
O           7.44600        24.13000        33.38600
C           8.13400        24.33500        34.62800
C           7.52000        25.64500        35.09300
O           7.52600        26.61400        34.03500
H           7.46000        26.05800        33.20600
C           8.00700        25.97600        36.49500
O           7.52300        27.24100        36.96800
H           7.69000        27.31800        37.95100
C           8.39000        21.90600        35.14300
O           7.41200        21.04700        34.53900
H           7.71800        20.10700        34.69400
C           7.87200        23.24200        35.65100
O           8.31200        23.59100        36.97100
C           7.66500        24.80000        37.39500
O           8.39800        24.83900        38.62800
C           7.82700        24.42900        39.87900
C           8.51700        23.20900        40.46700
O           8.32900        22.18500        39.47900
H           8.40600        22.65200        38.59800
C           8.10400        22.74800        -0.20900
O           8.55900        21.48000         0.28500
H           7.99800        21.26000         1.08300
C           7.67800        26.88600        40.68100
O           8.07800        27.58600        39.49400
H           7.96500        28.55900        39.69400
C           8.16900        25.47100        -1.12300
O           7.64800        25.08900         0.15900
C           8.25000        23.92400         0.74300
O           7.37600        23.82000         1.87700
C           3.84500        20.57900         0.30100
C           4.32200        19.22300        42.85400
O           4.06300        18.23200        41.84900
H           4.41700        18.60700        40.99300
C           3.70600        18.84200         2.12400
O           4.40800        17.74300         2.72200
H           3.93500        17.41400         3.53900
C           3.71900        23.01000         1.17600
O           4.23700        23.85400         0.13700
H           3.87200        24.78000         0.23000
C           4.22300        21.59000         1.37200
O           3.52900        21.17600         2.55800
C           3.90600        19.93200         3.16500
O           2.98900        19.84000         4.26500
C           3.74200        20.04500         5.46900