# freq=raman b3lyp/6-31+g(2d,p) geom=connectivity
350 7000.com
350 7000.com
C           8.47900         8.03500         2.86500
0 1
O           7.75700        10.38300         2.39100
H           7.64000         9.89200         1.52800
C           8.19600         9.69400         4.74400
O           7.31100        10.69600         5.26700
H           7.57800        11.03200         6.17000
C           8.72900         5.58400         3.60700
O           8.13000         4.85000         2.52900
H           8.25800         3.87500         2.71000
C           8.18400         6.97000         3.90900
O           8.80800         7.36300         5.14100
C           8.13400         8.50500         5.68900
O           8.75500         8.82700         6.94200
C           8.16100         8.41500         8.18100
C           8.50400         7.02300         8.68600
O           8.46900         6.01800         7.66100
H           8.91000         6.37200         6.83600
C           7.78800         6.64200         9.97100
O           8.09700         5.37600        10.57200
H           7.65800         5.35700        11.47000
C           7.73400        10.74300         8.90300
O           8.22500        11.44300         7.75100
H           8.10900        12.42000         7.93200
C           8.38800         9.42700         9.29200
O           7.60600         9.03200        10.42900
C           8.13300         7.78600        10.91000
O           7.45900         7.64300        12.16900
C           7.99300         7.98100        13.45600
C           7.41100         9.26200        14.03200
O           7.30100        10.25600        13.00400
H           7.30000         9.79800        12.11500
C           7.89000         9.81800        15.36300
O           6.96200        10.81200        15.82200
H           7.41200        11.10200        16.66600
C           8.31100         5.51000        14.24300
O           7.67700         4.75700        13.19900
H           7.86100         3.78900        13.37200
C           7.74100         6.89700        14.49100
O           8.39100         7.36000        15.68400
C           7.77000         8.54900        16.19200
O           8.45000         8.71500        17.44400
C           7.86900         8.27300        18.67900
C           8.57000         7.02400        19.18700
O           8.50900         5.90600        18.28900
H           8.84200         6.34900        17.45700
C           8.09300         6.69000        20.59100
O           8.93300         5.69400        21.19200
H           8.45900         5.22600        21.93800
C           8.06300        10.81300        19.35000
O           8.58700        11.46500        18.18500
H           8.64700        12.45700        18.29900
C           8.22400         9.34300        19.70000
O           7.73600         9.17400        21.03900
C           8.27100         7.91500        21.47300
O           7.75300         7.54700        22.76000
C           8.45500         7.77000        23.99200
C           8.02500         9.16100        24.43100
O           7.91900        10.28200        23.54200
H           7.57800         9.98100        22.65200
C           8.48500         9.54500        25.82800
O           8.00900        10.82300        26.27500
H           8.30700        10.85500        27.23000
C           8.40400         5.35200        24.64300
O           7.70600         4.64400        23.60900
H           7.87800         3.71200        23.92800
C           8.05700         6.77100        25.06500
O           8.57300         7.17000        26.34400
C           8.13300         8.44900        26.82100
O           8.93600         8.55400        28.00500
C           8.25300         8.25000        29.23000
C           8.95900         7.01100        29.75700
O           8.70300         5.89400        28.89400
H           9.16500         6.16700        28.05000
C           8.45100         6.56100        31.11700
O           9.14900         5.48300        31.75600
H           8.70700         5.15900        32.59200
C           8.26600        10.79600        29.98500
O           8.75500        11.43400        28.79600
H           8.81200        12.41100        28.99900
C           8.52200         9.32500        30.27000
O           7.85900         8.97200        31.49300
C           8.48800         7.79000        32.01000
O           7.77100         7.56700        33.23300
C           8.41400         7.75600        34.50200
C           8.02600         9.12600        35.03600
O           8.27300        10.24600        34.17300
H           7.91800        10.05700        33.25700
C           8.66000         9.47900        36.37200
O           8.24400        10.81300        36.69900
H           8.66300        10.98100        37.59100
C           8.46800         5.32300        35.26300
O           7.81600         4.68500        34.15600
H           7.77700         3.71400        34.39400
C           8.01900         6.74400        35.56400
O           8.68600         7.08300        36.78900
C           8.34400         8.35900        37.35000
O           9.31400         8.56800        38.38700
C           8.65400         8.36400        39.64500
C           8.91600         6.96900        40.18900
O           8.78000         5.86800        39.27900
H           9.27600         6.05200        38.43000
C           8.24600         6.72200        -0.51500
O           8.67600         5.45800         0.01100
H           8.36900         5.34400         0.95700
C           8.95900        10.77600        40.38100
O           9.15000        11.42300        39.11400
H           9.17500        12.41200        39.25900
C           9.14500         9.31400        -1.32700
O           8.64400         9.03400        -0.01100
C           8.76200         7.70700         0.52100
O           7.85400         7.65300         1.63100
C           4.38600         4.24000         0.06000
C           4.47600         2.80000        42.60300
O           3.79100         1.97800        41.64700
H           4.17700         2.24800        40.76500
C           3.80400         2.51900         1.89000
O           4.27200         1.22700         2.30100
H           3.98800         1.13400         3.25500
C           4.71300         6.68400         0.87800
O           3.79300         7.42200         0.06000
H           3.89300         8.40500         0.21100
C           4.67100         5.20000         1.20400
O           3.76200         4.87900         2.26700
C           4.25300         3.64400         2.80900
O           3.45600         3.57700         4.00000
C           4.17000         3.79400         5.22600
C           3.89100         5.17900         5.78500
O           3.88300         6.25900         4.84000
H           3.55400         5.84200         3.99300
C           4.77200         5.41200         7.00100
O           4.59400         6.76300         7.45300
H           4.88800         6.82100         8.40700
C           4.38800         1.43200         6.14000
O           4.09900         0.67900         4.95300
H           4.41300        -0.25600         5.11600
C           3.74400         2.80000         6.29500
O           4.34400         3.05100         7.57400
C           4.20800         4.41500         8.00000
O           4.76600         4.55800         9.31400
C           3.89100         4.39500        10.44000
C           4.09000         2.97000        10.93200
O           3.65400         2.03500         9.93400
H           4.07700         2.20400         9.04400
C           3.47200         2.79600        12.30900
O           4.00000         1.54700        12.77800
H           3.74800         1.32200        13.72000
C           3.78600         6.71500        11.16000
O           4.54500         7.39300        10.14800
H           4.50100         8.38900        10.22100
C           4.20800         5.32300        11.60100
O           3.50900         5.13000        12.83900
C           3.90600         3.84000        13.32500
O           3.17500         3.66400        14.54700
C           3.97000         3.79200        15.73500
C           3.72200         5.21500        16.21000
O           4.02900         6.34900        15.38600
H           4.11400         6.10500        14.41900
C           4.39000         5.39900        17.56300
O           4.11200         6.70600        18.08800
H           4.43800         6.66700        19.03200
C           3.82100         1.34900        16.50400
O           3.57000         0.76600        15.21700
H           3.49900        -0.19300        15.49000
C           3.49500         2.80600        16.79000
O           4.07700         3.02600        18.08300
C           3.89700         4.36600        18.56300
O           4.71800         4.55900        19.72400
C           4.16700         4.28700        21.02000
C           4.21900         2.91800        21.68000
O           4.17200         1.88700        20.68300
H           4.42900         2.27800        19.79900
C           3.32200         2.86200        22.90500
O           3.06300         1.50900        23.30900
H           3.45400         1.37400        24.22000
C           4.34900         6.73500        21.80200
O           4.60500         7.42500        20.57000
H           4.39600         8.37200        20.81400
C           4.63600         5.26800        22.08200
O           4.09300         5.06300        23.39400
C           4.07300         3.72300        23.90700
O           3.39800         3.93600        25.15500
C           4.11200         3.95300        26.40000
C           4.04600         5.40100        26.85500
O           4.70600         6.33100        25.98400
H           4.57400         6.13400        25.01300
C           4.58700         5.61800        28.25900
O           4.22800         6.87500        28.85200
H           4.31300         6.76300        29.84200
C           3.76400         1.58100        27.14300
O           3.63600         1.04200        25.82000
H           3.53500         0.06300        25.99700
C           3.54700         3.04700        27.48200
O           4.23700         3.22500        28.72700
C           4.05800         4.56200        29.21500
O           4.85300         4.57700        30.41000
C           4.19600         4.30500        31.65600
C           4.48300         2.89200        32.13800
O           4.26000         1.84500        31.18200
H           4.22400         2.27300        30.27900
C           3.78200         2.60600        33.45600
O           3.73500         1.25300        33.93200
H           3.87600         1.17600        34.91900
C           4.03000         6.57800        32.42600
O           4.48700         7.38800        31.33300
H           4.27400         8.31700        31.63800
C           4.60400         5.22100        32.79900
O           4.05400         4.90200        34.08500
C           4.32100         3.55900        34.51100
O           3.67200         3.45200        35.78700
C           4.40900         3.90300        36.93200
C           4.07900         5.29800        37.43600
O           4.54200         6.30200        36.52100
H           4.09500         6.22000        35.63100
C           4.79900         5.58400        38.74400
O           4.67300         6.84000        39.42700
H           4.34100         6.54800        40.32400
C           4.67100         1.50300        37.66900
O           4.12700         0.78600        36.55100
H           4.34400        -0.18800        36.61500
C           4.13600         2.88100        38.02300
O           4.71000         3.18300        39.30300
C           4.46700         4.51700        39.77400
O           5.25100         4.40400        40.97100
C           8.14300        16.13400         2.87600
C           7.53200        17.47300         3.25800
O           7.74100        18.55000         2.33300
H           7.95100        18.16300         1.43500
C           7.69500        17.80500         4.73300
O           6.93300        18.96300         5.10100
H           7.40400        19.31300         5.91100
C           8.33100        13.85100         3.56200
O           8.06200        13.09600         2.37200
H           8.12500        12.18800         2.78600
C           7.66800        15.16400         3.94500
O           7.98000        15.40800         5.32500
C           7.43300        16.67500         5.71600
O           8.33500        16.80600         6.82400
C           7.68100        16.58100         8.08100
C           8.15500        15.22400         8.57500
O           7.93000        14.12200         7.68300
H           8.17100        14.44300         6.76700
C           7.69900        14.89600         9.98700
O           8.14700        13.60700        10.43100
H           7.79800        13.40100        11.34500
C           7.65300        19.02800         8.84500
O           7.80900        19.73000         7.60300
H           7.80900        20.71400         7.78400
C           8.21400        17.63000         9.04400
O           7.81500        17.29900        10.38200
C           8.14700        16.01000        10.91900
O           7.33100        15.89500        12.09400
C           7.95200        16.11200        13.37000
C           7.46800        17.45300        13.89500
O           7.52500        18.63100        13.07800
H           6.79200        18.44000        12.42400
C           8.16800        17.80700        15.19700
O           7.44700        18.88800        15.80600
H           8.00800        19.17600        16.58200
C           8.00000        13.65900        14.17000
O           7.36200        13.01400        13.05900
H           7.44000        12.02300        13.17200
C           7.62800        15.10400        14.46100
O           8.34200        15.47400        15.64900
C           7.83700        16.70400        16.18900
O           8.61500        16.84100        17.38800
C           7.98300        16.42000        18.60500
C           8.51600        15.07800        19.08100
O           8.54500        14.08500        18.04500
H           8.52000        14.54300        17.15700
C           8.13500        14.74000        20.51300
O           8.89000        13.61200        20.97800
H           8.35200        13.23800        21.73400
C           7.84800        18.91700        19.29000
O           8.38900        19.68900        18.20800
H           7.93800        20.58000        18.25500
C           8.25400        17.49600        19.64400
O           7.58200        17.09000        20.84500
C           8.20000        15.94100        21.44200
O           7.47800        15.67900        22.65400
C           8.15500        16.03100        23.87000
C           7.54000        17.30000        24.43600
O           7.42300        18.38800        23.50700
H           6.89100        18.00900        22.75000
C           8.18300        17.81900        25.71200
O           7.75700        19.03300        26.34800
H           8.36800        19.25500        27.10800
C           8.52200        13.59200        24.71600
O           8.14000        12.85700        23.54400
H           8.00500        11.90800        23.82600
C           7.96300        14.98500        24.95600
O           8.59400        15.46100        26.15300
C           8.02100        16.66300        26.68600
O           8.87400        16.80800        27.83100
C           8.33700        16.48900        29.12300
C           9.02300        15.24700        29.66900
O           8.86700        14.12600        28.78700
H           9.26900        14.34300        27.89800
C           8.50500        14.68800        30.98400
O           9.37400        13.67000        31.50300
H           9.02300        13.34600        32.38100
C           8.06900        18.88500        29.76900
O           8.78800        19.59800        28.75200
H           8.42500        20.52900        28.74100
C           8.55200        17.51700        30.22300
O           7.95800        17.11700        31.46600
C           8.45500        15.86100        31.94900
O           7.80900        15.49500        33.17700
C           8.45600        15.96600        34.36900
C           7.89100        17.28900        34.85900
O           7.95000        18.30800        33.85100
H           7.62900        18.01000        32.95200
C           8.46000        17.71500        36.20300
O           7.97700        18.98900        36.65600
H           8.54800        19.32100        37.40700
C           8.72900        13.57300        35.02500
O           8.25900        12.85700        33.87300
H           8.39800        11.90600        34.14700
C           8.15200        14.92000        35.42800
O           8.70200        15.32200        36.69100
C           8.28200        16.59200        37.21200
O           9.02800        16.91400        38.39500
C           8.49200        16.39200        39.61900
C           9.04900        15.08600        40.16400
O           8.99600        13.97800        39.25400
H           9.32400        14.21800        38.34000
C           8.46400        14.73200        -0.52600
O           9.13800        13.57400        -0.01200
H           8.89400        13.57300         0.95800
C           8.09900        18.80200        40.34400
O           8.59800        19.55700        39.23000
H           8.44900        20.52600        39.42700
C           8.59700        17.42700        -1.32100
O           7.89400        17.12300        -0.10800
C           8.52600        15.93800         0.39800
O           7.67600        15.84500         1.55000
C           4.05600        12.65100         0.23600
C           4.29400        11.21600        42.74800
O           4.02900        10.13300        41.84400
H           4.07400        10.54700        40.93500
C           3.72300        10.87600         2.06700
O           4.02200         9.55500         2.54000
H           3.59200         9.46900         3.43800
C           4.45400        14.95100         1.17500
O           4.61800        15.65000        -0.06800
H           4.41000        16.62000         0.05700
C           4.66100        13.45800         1.37300
O           3.97900        13.15000         2.59700
C           4.32500        11.84200         3.07500
O           3.43900        11.84000         4.20300
C           4.17400        12.02400         5.42200
C           3.89600        13.44300         5.88900
O           4.53000        14.42800         5.06000
H           4.24900        14.13500         4.14600
C           4.27200        13.67000         7.34500
O           3.73400        14.89700         7.86000
H           3.76400        14.93200         8.85900
C           3.99700         9.54300         6.12200
O           3.58200         8.71300         5.02800
H           3.76300         7.75100         5.22700
C           3.75900        11.00300         6.47000
O           4.39900        11.28100         7.72300
C           3.84800        12.50700         8.22700
O           4.44500        12.63600         9.52500
C           3.64100        12.45600        10.70100
C           3.94500        11.05400        11.20100
O           3.84500        10.03400        10.19600
H           4.11400        10.59400         9.41200
C           3.32500        10.79000        12.56300
O           3.82100         9.57800        13.15000
H           3.55800         9.31900        14.07900
C           3.71400        14.81500        11.53900
O           4.08500        15.43200        10.29700
H           3.77800        16.37700        10.40600
C           4.09400        13.37200        11.82700
O           3.45700        13.13100        13.09100
C           3.84900        11.82700        13.54300
O           2.97100        11.99500        14.66600
C           3.74300        12.08200        15.87300
C           3.57200        13.47000        16.46800
O           4.11000        14.46800        15.58800
H           3.82900        14.18000        14.67300
C           4.34900        13.64500        17.76300
O           4.18900        14.93200        18.37900
H           4.53200        14.88400        19.31700
C           3.81700         9.64900        16.78100
O           3.40600         8.89800        15.63000
H           3.77200         7.97100        15.71600
C           3.47100        11.11100        17.01000
O           4.21000        11.35800        18.21500
C           3.89600        12.63000        18.80000
O           4.64900        12.56700        20.02000
C           3.95000        12.33600        21.25100
C           4.12500        10.94300        21.83400
O           3.86300         9.96500        20.81700
H           4.15800        10.38200        19.95800
C           3.56600        10.52600        23.18500
O           4.22800         9.34900        23.67000
H           4.07300         9.34600        24.65800
C           3.79500        14.73200        22.18300
O           4.59100        15.57800        21.34100
H           4.18900        16.49400        21.31800
C           4.20100        13.28500        22.41200
O           3.42400        12.90700        23.55700
C           3.84300        11.66900        24.14800
O           3.04600        11.54000        25.33400
C           3.74500        11.89700        26.53500
C           3.48300        13.31600        27.01300
O           3.66100        14.17400        25.87700
H           3.25100        13.73200        25.07900
C           4.21500        13.63800        28.30500
O           3.86500        14.97200        28.70100
H           4.13200        15.07900        29.65800
C           4.22900         9.56600        27.46900
O           3.78200         8.78500        26.35000
H           4.10700         7.84000        26.38100
C           3.56800        10.91800        27.68400
O           4.34100        11.26000        28.84400
C           3.90800        12.54400        29.31400
O           4.67800        12.66700        30.51900
C           4.10000        12.32300        31.78700
C           4.53100        10.94100        32.25000
O           4.16500         9.89900        31.33400
H           4.66500         9.99800        30.47300
C           3.90400        10.55100        33.57900
O           4.48500         9.35900        34.12800
H           4.31800         9.29900        35.11200
C           4.22000        14.86700        32.63700
O           4.36000        15.58000        31.40000
H           4.33900        16.57200        31.51900
C           4.48300        13.38000        32.81000
O           4.02300        12.94500        34.09800
C           4.40700        11.62900        34.52400
O           3.60700        11.64100        35.71500
C           4.21900        11.96900        36.97000
C           3.92000        13.37900        37.45400
O           4.07300        14.37800        36.43500
H           3.88800        13.98100        35.53600
C           4.64200        13.66700        38.76000
O           4.52500        15.04900        39.12600
H           4.83900        15.26400        40.05100
C           4.20400         9.57000        37.79400
O           3.96400         8.78000        36.62100
H           4.18100         7.82700        36.83200
C           3.69800        10.98800        38.00700
O           4.23600        11.38400        39.27800
C           4.14200        12.70700        39.82700
O           4.81700        12.86600        41.08300
C           8.07400        24.23600         2.93700
C           7.42100        25.52200         3.41600
O           7.64700        26.47300         2.36600
H           7.48300        26.10600         1.45000
C           7.71400        25.94800         4.84600
O           7.06000        27.13600         5.31500
H           7.51100        27.48000         6.13800
C           8.31000        21.85800         3.80100
O           8.09700        21.14200         2.57500
H           7.83000        20.17900         2.61400
C           7.68500        23.22800         4.00600
O           8.06300        23.57300         5.34600
C           7.44200        24.78800         5.79100
O           8.31500        24.99400         6.91200
C           7.70800        24.74700         8.18900
C           8.21600        23.39100         8.65000
O           7.80300        22.33400         7.77200
H           7.62400        22.74000         6.87500
C           7.86300        22.97700        10.06900
O           8.63100        21.85700        10.53400
H           8.56000        21.68700        11.51700
C           7.82400        27.22300         9.14100
O           8.20000        27.80400         7.88400
H           7.97900        28.77800         7.83100
C           8.13400        25.74000         9.25900
O           7.44500        25.37400        10.46400
C           7.98300        24.16200        11.01200
O           7.25600        23.98400        12.23600
C           7.96100        24.24700        13.45800
C           7.54100        25.63100        13.92500
O           7.85800        26.65800        12.97400
H           7.66700        26.30500        12.05800
C           7.97500        25.95800        15.34500
O           7.51300        27.20800        15.87500
H           7.84000        27.38900        16.80300
C           8.11600        21.74400        14.23300
O           7.74100        21.21700        12.95200
H           7.80700        20.21900        12.97500
C           7.73200        23.18600        14.52300
O           8.13400        23.54000        15.85400
C           7.59200        24.80500        16.25900
O           8.17900        25.06300        17.54400
C           7.78600        24.53200        18.81800
C           8.54600        23.28900        19.24900
O           8.17300        22.25500        18.32500
H           8.29800        22.59200        17.39200
C           7.98000        22.84400        20.58800
O           8.72800        21.82100        21.26100
H           8.08700        21.48900        21.95300
C           7.55100        26.98500        19.57600
O           8.11000        27.89400        18.61600
H           7.50600        28.65800        18.38800
C           8.12600        25.60300        19.84100
O           7.42100        25.15200        21.00700
C           7.98800        23.97600        21.60200
O           7.01700        23.92400        22.65800
C           7.70800        24.23200        23.87700
C           7.10200        25.50700        24.43900
O           7.23600        26.52300        23.43400
H           7.09600        26.06600        22.55600
C           7.89400        25.90200        25.67400
O           7.16700        26.99000        26.26300
H           7.52800        27.12000        27.18600
C           8.10400        21.73800        24.62600
O           7.63600        20.94200        23.52700
H           7.77300        19.97900        23.75800
C           7.52900        23.11900        24.89700
O           8.12700        23.50700        26.14200
C           7.75700        24.78000        26.69100
O           8.40000        25.14300        27.92200
C           7.80300        24.58800        29.10300
C           8.52200        23.35000        29.61600
O           8.17900        22.33200        28.66500
H           8.15700        22.83600        27.80200
C           8.20800        22.82200        31.00600
O           8.94800        21.72900        31.57000
H           8.65300        21.49600        32.49700
C           7.23500        26.95500        29.93900
O           7.94500        27.73800        28.96900
H           7.69200        28.67700        29.20400
C           7.89200        25.61300        30.22100
O           7.55200        25.12900        31.52800
C           8.33300        24.00300        31.95500
O           7.57800        23.71600        33.14000
C           8.26600        24.05800        34.35200
C           7.85000        25.40600        34.91800
O           8.20500        26.46000        34.01100
H           7.82200        26.23500        33.11600
C           8.36600        25.73000        36.31000
O           7.94000        27.00300        36.81900
H           8.28700        26.98900        37.75700
C           8.13000        21.55200        35.02500
O           7.56900        20.96500        33.84200
H           7.47000        19.97800        33.96700
C           7.95300        23.01200        35.41000
O           8.53500        23.25100        36.70000
C           8.10700        24.52600        37.20000
O           8.77100        24.79300        38.44400
C           8.13500        24.61200        39.71800
C           8.66900        23.29000        40.24600
O           8.49300        22.16400        39.37500
H           8.76300        22.58800        38.51000
C           8.16300        22.90800        -0.42200
O           8.80400        21.68900        -0.01600
H           8.51000        21.44900         0.90900
C           7.85700        26.92100        40.50900
O           8.38500        27.59100        39.35500
H           8.44300        28.56700        39.56100
C           8.53600        25.60300        -1.25300
O           7.93800        25.28100         0.01100
C           8.37500        24.03600         0.57400
O           7.52100        23.77300         1.69700
C           4.05800        20.66800         0.23200
C           4.45200        19.27300        42.76300
O           4.05000        18.27900        41.80900
H           4.56200        18.57400        41.00200
C           3.65700        19.02900         1.99000
O           3.78400        17.63300         2.29700
H           3.49300        17.41200         3.22800
C           4.14600        23.05300         1.15200
O           3.95900        23.83800        -0.03500
H           3.93800        24.81100         0.19500
C           4.54000        21.59600         1.33500
O           4.00000        21.31100         2.63400
C           4.12700        19.95900         3.09700
O           3.21900        19.91300         4.20700
C           3.80900        20.21100         5.48100
C           3.41300        21.59300         5.97500