# freq=raman b3lyp/6-31+g(2d,p) geom=connectivity
310 6000.com
310 6000.com
C           8.34700         7.77100         2.97700
0 1
O           7.97800        10.11800         2.54300
H           7.76900         9.77700         1.62700
C           8.04400         9.48400         4.87900
O           7.24700        10.55700         5.39900
H           7.55400        10.78000         6.32400
C           8.43200         5.35400         3.73200
O           8.10600         4.68600         2.50400
H           8.19800         3.72800         2.77400
C           7.87100         6.74300         3.99100
O           8.35900         7.08900         5.29500
C           7.83000         8.31300         5.82400
O           8.60700         8.56600         7.00400
C           8.00900         8.18800         8.25200
C           8.50500         6.82500         8.70400
O           8.20600         5.81300         7.73100
H           8.24500         6.23100         6.82400
C           7.93300         6.51500        10.07800
O           8.47900         5.27800        10.55800
H           8.08100         5.20500        11.47200
C           7.76000        10.70600         9.04000
O           8.10300        11.35000         7.80500
H           8.19000        12.34500         7.86100
C           8.33300         9.31000         9.22500
O           7.79300         8.89300        10.48700
C           8.25500         7.65000        11.03600
O           7.52600         7.45300        12.25600
C           8.11700         7.89500        13.48700
C           7.70700         9.29800        13.90500
O           8.09900        10.32600        12.98300
H           7.73200        10.06100        12.09100
C           8.20600         9.63700        15.30000
O           7.86800        10.91000        15.87000
H           8.25200        11.00000        16.78900
C           8.31900         5.46200        14.39700
O           7.76100         4.57400        13.41800
H           8.18300         3.67800        13.56000
C           7.71000         6.85000        14.51300
O           8.13500         7.27400        15.81600
C           7.76000         8.57500        16.29200
O           8.59100         8.62400        17.46100
C           7.92800         8.42700        18.71800
C           8.37400         7.08100        19.26400
O           8.13800         6.08300        18.26000
H           8.46900         6.46900        17.39800
C           7.88500         6.78400        20.67200
O           8.54300         5.54800        20.98800
H           8.20400         5.30300        21.89600
C           8.05500        10.83300        19.60600
O           8.50500        11.40600        18.37000
H           8.47900        12.38600        18.57000
C           8.46200         9.37800        19.77700
O           8.05700         9.20300        21.14300
C           8.36000         7.88100        21.61100
O           7.63300         7.71200        22.83600
C           8.29500         7.93600        24.09000
C           7.97400         9.29800        24.68300
O           8.34500        10.24200        23.66800
H           8.25300         9.68800        22.84100
C           8.59700         9.69400        26.01200
O           8.21200        10.91700        26.65600
H           8.62600        11.03800        27.55800
C           8.49400         5.57100        24.83400
O           8.17800         4.88100        23.61600
H           8.35900         3.91600        23.80500
C           7.99600         6.95600        25.21200
O           8.71700         7.25000        26.41700
C           8.29300         8.52100        26.93000
O           9.04700         8.73500        28.13100
C           8.50300         8.36700        29.40700
C           8.89000         6.99800        29.94400
O           8.72300         6.05600        28.87500
H           9.07400         6.54300        28.07500
C           8.26300         6.59800        31.26900
O           8.92400         5.44200        31.80300
H           8.43800         5.33500        32.67000
C           8.37300        10.78300        30.41200
O           8.89300        11.37200        29.21100
H           8.71200        12.35500        29.24300
C           8.81700         9.33400        30.53700
O           8.08500         9.03400        31.73300
C           8.49300         7.75200        32.23200
O           7.66700         7.50400        33.37900
C           8.22500         7.81900        34.66400
C           7.71500         9.18100        35.10300
O           8.10300        10.18000        34.14800
H           7.72000         9.83500        33.29100
C           8.25900         9.47300        36.49200
O           7.85100        10.74400        37.01700
H           8.36200        10.89900        37.86300
C           8.30400         5.36400        35.41100
O           7.76100         4.62100        34.31000
H           7.87200         3.65100        34.52900
C           7.80000         6.77200        35.68100
O           8.37000         7.02400        36.97400
C           8.02100         8.32800        37.46300
O           8.92500         8.58100        38.54800
C           8.23400         8.24500        39.75900
C           8.61100         6.84400        40.21200
O           7.77200         6.01600        39.39300
H           8.09900         6.18200        38.46300
C           8.16100         6.52500        -0.43300
O           8.72900         5.25900        -0.06900
H           8.47500         5.00800         0.86500
C           7.84500        10.57800        40.63200
O           8.43700        11.37300        39.59400
H           8.38700        12.33700        39.85300
C           8.49600         9.23000        -1.18200
O           7.96700         8.85700         0.09900
C           8.50600         7.61400         0.57000
O           7.69100         7.45500         1.74100
C           3.93100         4.12700         0.34300
C           4.28600         2.73500        42.90200
O           3.74600         1.82400        41.93400
H           3.91800         2.13300        40.99900
C           3.91400         2.39600         2.27500
O           4.08500         1.12100         2.91100
H           3.65300         1.15300         3.81200
C           4.14900         6.55700         1.11700
O           4.43700         7.30100        -0.07500
H           4.15200         8.25800        -0.02200
C           4.53500         5.10300         1.34000
O           4.21100         4.80800         2.70600
C           4.49400         3.47900         3.16900
O           3.84200         3.34000         4.43900
C           4.49900         3.71900         5.65800
C           4.10400         5.11600         6.11000
O           4.55300         6.09200         5.15900
H           4.43500         5.73700         4.23200
C           4.63500         5.42000         7.50100
O           4.35900         6.73900         7.99300
H           4.32000         6.70300         8.99200
C           4.14700         1.31600         6.54100
O           3.70300         0.71900         5.31400
H           3.99300        -0.23800         5.29100
C           3.98100         2.81100         6.76100
O           4.60400         3.06900         8.02800
C           4.17300         4.35800         8.48600
O           4.95400         4.45700         9.68600
C           4.23100         4.23500        10.90500
C           4.53900         2.86900        11.49600
O           4.38900         1.84300        10.50400
H           4.80900         2.13700         9.64500
C           3.55500         2.63400        12.63000
O           3.72200         1.31600        13.17300
H           3.33900         1.28200        14.09600
C           3.92900         6.68800        11.77800
O           4.41100         7.35300        10.60100
H           4.32300         8.34600        10.67500
C           4.45200         5.27600        11.99000
O           3.67300         5.05200        13.17500
C           3.72300         3.71200        13.68800
O           2.88700         3.66900        14.85400
C           3.64200         3.86500        16.05800
C           3.42100         5.27400        16.58600
O           3.94000         6.19100        15.61300
H           3.70800         5.89700        14.68600
C           4.13300         5.48700        17.91100
O           3.76200         6.78700        18.39300
H           4.13600         7.10900        19.26300
C           3.67000         1.38700        16.86600
O           3.24100         0.64700        15.71300
H           3.61000        -0.26800        15.88300
C           3.35100         2.84600        17.14800
O           4.09300         3.19200        18.32600
C           3.73400         4.44000        18.93800
O           4.60400         4.64300        20.06100
C           4.06000         4.23500        21.32400
C           4.59100         2.87100        21.73400
O           4.43800         1.80200        20.78900
H           4.37400         2.37800        19.97400
C           3.99900         2.63000        23.11300
O           4.37100         1.34900        23.64200
H           4.27700         1.30800        24.63700
C           4.06400         6.68100        22.24000
O           4.27400         7.40400        21.01800
H           4.09000         8.37200        21.18600
C           4.62500         5.26900        22.28400
O           4.39100         5.01300        23.67700
C           4.56800         3.64900        24.08700
O           3.82800         3.59600        25.31500
C           4.40400         3.80100        26.61300
C           4.08300         5.19500        27.13000
O           4.54700         6.21900        26.23900
H           4.47400         5.96000        25.27500
C           4.61400         5.43900        28.53300
O           4.32100         6.81400        28.82300
H           4.57100         6.91100        29.78600
C           4.02100         1.39700        27.43400
O           4.19000         0.75200        26.16400
H           3.97300        -0.21100        26.32600
C           3.79000         2.88200        27.65700
O           4.06600         3.16800        29.03600
C           3.87200         4.51700        29.48700
O           4.64600         4.46200        30.69500
C           3.95200         4.26200        31.93500
C           4.32600         2.85600        32.37500
O           3.76100         1.91900        31.44600
H           3.83600         2.26000        30.50900
C           3.87400         2.53400        33.79000
O           4.40000         1.30200        34.30300
H           4.16400         1.19500        35.26900
C           4.19600         6.68800        32.82600
O           4.51000         7.32800        31.58000
H           4.38600         8.30000        31.77600
C           4.45500         5.20300        33.01700
O           4.01200         4.90300        34.34900
C           4.34300         3.57800        34.79000
O           3.52800         3.47000        35.96600
C           4.15200         3.72100        37.23400
C           3.84500         5.13200        37.71100
O           4.19500         6.20900        36.83000
H           4.10300         5.83500        35.90800
C           4.51200         5.48100        39.03200
O           4.35000         6.85900        39.39900
H           4.50300         6.94500        40.38300
C           3.91500         1.20100        38.02900
O           3.81500         0.62400        36.71900
H           3.77700        -0.36300        36.87700
C           3.71700         2.69000        38.26300
O           4.11300         3.07200        39.58800
C           3.91300         4.44200        39.96600
O           4.65300         4.41300        41.19500
C           7.99600        16.00100         3.14700
C           7.27800        17.25400         3.62100
O           7.35800        18.31600         2.65900
H           7.26900        17.91300         1.74900
C           7.96500        17.68500         4.90700
O           7.58900        18.93600         5.50100
H           8.03500        18.98800         6.39400
C           8.52500        13.64100         3.94200
O           7.86100        12.92200         2.89200
H           7.87700        11.93700         3.06600
C           7.85700        14.97000         4.25500
O           8.36800        15.41100         5.52100
C           7.72600        16.61600         5.96200
O           8.42100        16.84900         7.19500
C           7.76700        16.50700         8.42600
C           8.18800        15.14400         8.95100
O           7.93400        14.16000         7.93800
H           8.18300        14.55200         7.05200
C           7.74500        14.81600        10.36800
O           8.40600        13.63300        10.84000
H           8.09500        13.42000        11.76600
C           7.92500        19.05000         9.22500
O           8.33900        19.83900         8.10000
H           8.29400        20.81900         8.29700
C           8.21100        17.57000         9.41900
O           7.74400        17.20000        10.72400
C           8.16200        15.95000        11.29000
O           7.33200        15.85300        12.45600
C           8.00700        16.14300        13.68900
C           7.56300        17.47500        14.27200
O           7.83100        18.50000        13.30400
H           7.44100        18.02200        12.51700
C           8.15700        17.73100        15.64700
O           7.39500        18.81700        16.19600
H           7.65200        18.93500        17.15500
C           8.02200        13.60100        14.46800
O           7.45800        12.94700        13.32200
H           7.57600        11.95400        13.35500
C           7.76600        15.07400        14.74200
O           8.45300        15.32800        15.97600
C           7.94900        16.53600        16.56300
O           8.78300        16.79600        17.70200
C           8.12100        16.41100        18.91600
C           8.74100        15.12400        19.43400
O           8.66200        14.08000        18.45300
H           8.83800        14.50000        17.56200
C           8.13100        14.70500        20.76200
O           8.78800        13.60900        21.41500
H           8.11000        13.39100        22.11700
C           7.80100        18.82400        19.59300
O           8.29200        19.69100        18.56100
H           8.23800        20.65200        18.83100
C           8.40100        17.47700        19.96200
O           7.78600        17.09100        21.20000
C           8.29100        15.86000        21.73700
O           7.49500        15.60800        22.90400
C           8.04300        15.92800        24.19100
C           7.50500        17.25900        24.69000
O           7.86100        18.29300        23.76100
H           7.54600        18.01500        22.85300
C           8.07900        17.65800        26.04000
O           7.32900        18.74700        26.59800
H           7.65800        18.87800        27.53300
C           8.44200        13.54900        24.76800
O           7.74000        12.76100        23.79600
H           8.10000        11.83100        23.73000
C           7.84200        14.85900        25.25300
O           8.41300        15.34400        26.47700
C           7.92200        16.55400        27.07200
O           8.79700        16.72600        28.19600
C           8.22600        16.40000        29.47200
C           8.60600        15.00200        29.93000
O           8.27100        13.95900        29.00300
H           8.38100        14.29200        28.06600
C           8.00600        14.66500        31.28600
O           8.52400        13.44600        31.83800
H           8.10600        13.32500        32.73800
C           9.02600        18.73400        30.20900
O           7.92500        19.53400        29.75600
H           8.13200        20.51200        29.77600
C           8.75000        17.28800        30.58800
O           7.87800        17.05600        31.70400
C           8.19100        15.78700        32.29400
O           7.45000        15.58400        33.50700
C           7.95400        16.04000        34.77100
C           7.64000        17.43300        35.29200
O           7.97600        18.34500        34.23600
H           7.97000        17.89300        33.34500
C           8.14300        17.88700        36.65200
O           7.55900        19.12500        37.08500
H           7.59800        19.18700        38.08200
C           7.90700        13.57000        35.58700
O           7.62800        12.90400        34.34700
H           7.90800        11.95800        34.50800
C           7.56400        15.02900        35.83700
O           8.02500        15.44900        37.12900
C           7.70000        16.77100        37.58400
O           8.47700        16.90300        38.78300
C           7.82500        16.53300        40.00600
C           8.31900        15.16900        40.46000
O           8.19900        14.19500        39.41300
H           8.38700        14.56600        38.50400
C           7.79800        14.72100        -0.24400
O           8.31300        13.47900         0.25600
H           8.07700        13.37900         1.22300
C           7.54400        18.90200        41.00200
O           7.91400        19.58000        39.79200
H           7.92000        20.56800        39.94700
C           8.12600        17.50600        -0.93400
O           7.56900        17.06600         0.31300
C           8.10500        15.81400         0.76600
O           7.30900        15.62700         1.94500
C           3.96600        12.24000         0.40500
C           4.10500        10.80800        42.95500
O           3.96000         9.80300        41.94100
H           4.34300        10.20000        41.10700
C           3.62800        10.48900         2.30200
O           4.01500         9.16200         2.68500
H           3.69400         9.03500         3.62400
C           3.83500        14.65300         1.24100
O           4.10500        15.37800         0.03200
H           4.16800        16.37300         0.10600
C           4.29300        13.22900         1.51200
O           3.69300        12.94400         2.78400
C           4.05900        11.62500         3.21600
O           3.27600        11.55200         4.41500
C           3.94400        11.86300         5.64600
C           3.58400        13.26700         6.10300
O           4.04200        14.16300         5.07900
H           3.61800        13.80100         4.24900
C           4.18500        13.62800         7.45200
O           4.14700        15.02000         7.79800
H           4.25200        15.16300         8.78300
C           4.00400         9.44100         6.51200
O           3.73700         8.70100         5.31100
H           3.98400         7.74200         5.44600
C           3.63200        10.89100         6.77300
O           4.09600        11.33900         8.05500
C           3.60500        12.63100         8.44100
O           4.32200        12.86900         9.66100
C           3.84800        12.54700        10.97700
C           4.32900        11.22600        11.55500
O           4.40200        10.24300        10.51100
H           4.38100        10.79100         9.67500
C           3.85300        10.83100        12.94400
O           4.52000         9.76300        13.63200
H           3.99100         9.35600        14.37700
C           3.60500        14.93800        11.56100
O           4.16700        15.68800        10.47400
H           4.08600        16.66800        10.65600
C           4.22000        13.61700        11.99000
O           3.51800        13.32200        13.20600
C           4.02200        12.09900        13.76400
O           3.24200        11.88700        14.95000
C           3.80400        12.18000        16.23800
C           3.37900        13.49800        16.86400
O           3.57700        14.58500        15.94800
H           3.15800        14.24800        15.10500
C           4.05200        13.79000        18.19500
O           3.70100        15.06100        18.76300
H           4.04900        15.16100        19.69500
C           3.80800         9.69900        16.87800
O           3.23400         9.02800        15.74600
H           3.35700         8.05000        15.91600
C           3.45600        11.12400        17.27400
O           4.10700        11.44600        18.51200
C           3.78700        12.67000        19.18800
O           4.68200        12.54300        20.30300
C           3.97000        12.41700        21.54200
C           4.36200        11.04200        22.05800
O           4.08300        10.02400        21.08500
H           4.23700        10.47400        20.20600
C           3.72000        10.70300        23.39300
O           4.11500         9.40500        23.86000
H           4.09700         9.26200        24.84900
C           3.88600        14.80200        22.37600
O           4.23800        15.62200        21.25200
H           4.18200        16.61100        21.38400
C           4.36800        13.38500        22.64500
O           3.72900        13.08000        23.89300
C           4.08000        11.78400        24.40000
O           3.34400        11.80300        25.63100
C           4.02200        12.01500        26.87900
C           3.69400        13.42400        27.34400
O           4.09200        14.37700        26.34800
H           4.02100        13.98400        25.43100
C           4.38700        13.74200        28.65900
O           3.77100        14.90600        29.23000
H           4.18100        15.10800        30.11900
C           3.55300         9.67500        27.49300
O           4.71500         8.95200        27.06200
H           4.65100         7.99000        27.32500
C           3.49300        11.11300        27.98200
O           4.22100        11.35900        29.19400
C           4.00700        12.68900        29.68800
O           4.81600        12.62500        30.87100
C           4.09500        12.44900        32.09900
C           4.50500        11.06200        32.56400
O           4.29400        10.02900        31.59100
H           4.78700        10.41700        30.81200
C           3.77600        10.76900        33.86500
O           4.32300         9.57200        34.43700
H           3.91500         9.50400        35.34700
C           3.91500        14.87700        32.79500
O           4.49700        15.53600        31.66100
H           4.46500        16.50000        31.92700
C           4.45700        13.49800        33.13800
O           3.71800        13.13800        34.31400
C           4.00200        11.85900        34.90000
O           3.19100        11.64000        36.06300
C           3.91200        11.95500        37.26300
C           3.62000        13.35000        37.79100
O           3.85500        14.41200        36.85500
H           3.65800        14.06200        35.93900
C           4.33800        13.60500        39.10600
O           4.00500        14.87900        39.67500
H           4.05000        14.81400        40.67200
C           4.16000         9.53700        37.88400
O           3.34200         8.86200        36.91800
H           3.39400         7.87700        37.07800
C           3.79400        10.92700        38.37700
O           4.54300        11.24100        39.56000
C           3.99900        12.47100        40.06100
O           4.70500        12.63900        41.29900
C           8.03300        24.16300         3.23500
C           7.44700        25.48200         3.71200
O           7.56600        26.51000         2.71900
H           7.24100        26.13900         1.84900
C           7.78200        25.88700         5.13900
O           6.90200        26.94500         5.54300
H           7.15100        27.13100         6.49400
C           8.29400        21.67400         3.88800
O           7.65400        20.94900         2.82800
H           7.60700        19.98400         3.08800
C           7.86000        23.07600         4.28400
O           8.31500        23.52900         5.56700
C           7.52900        24.65300         5.98900
O           8.23300        25.01600         7.18600
C           7.74700        24.69400         8.49700
C           8.45400        23.48600         9.09000
O           8.43200        22.33900         8.22800
H           8.64600        22.71700         7.32700
C           7.84500        23.01800        10.40200
O           8.45800        21.83800        10.94200
H           8.14900        21.81700        11.89300
C           7.07200        27.01000         9.03600
O           7.61400        27.72900         7.92000
H           7.50100        28.69300         8.16100
C           7.86900        25.81000         9.52200
O           7.40900        25.36800        10.80700
C           7.97700        24.17800        11.37500
O           7.25200        23.84800        12.56900
C           7.84000        24.19900        13.83100
C           7.23100        25.50500        14.31500
O           7.51000        26.59900        13.43000
H           7.29000        26.26800        12.51200
C           7.69900        25.86200        15.71700
O           7.16400        27.10500        16.19400
H           7.49500        27.37400        17.09900
C           8.12800        21.73200        14.42100
O           7.56600        21.19100        13.21700
H           7.72000        20.20700        13.30800
C           7.54000        23.07800        14.81300
O           7.92600        23.49100        16.13200
C           7.48200        24.72900        16.70700
O           8.34100        25.01400        17.82000
C           7.82500        24.57900        19.08700
C           8.40200        23.26100        19.57700
O           8.03800        22.26100        18.61400
H           8.26800        22.65600        17.72400
C           7.80900        22.86100        20.91900
O           8.35500        21.64100        21.44000
H           8.08400        21.54700        22.39800
C           7.65800        27.03700        19.83800
O           8.07800        27.78400        18.68700
H           7.89900        28.74500        18.90000
C           8.08800        25.61700        20.16600
O           7.54800        25.28900        21.45400
C           8.00200        24.00400        21.90200
O           7.11900        23.86300        23.02500
C           7.64600        24.22600        24.30900
C           7.09600        25.58200        24.72100
O           7.29700        26.59300        23.72200
H           7.40400        26.11600        22.85000
C           7.66000        25.93300        26.08800
O           7.09300        27.12400        26.65500
H           7.42500        27.31300        27.57900
C           7.71500        21.71700        25.08400
O           7.85000        20.93500        23.88800
H           7.90900        19.96700        24.13300
C           7.19300        23.13300        25.26400
O           7.81000        23.42200        26.52600
C           7.40800        24.72500        26.97400
O           8.10900        25.06800        28.17800
C           7.63000        24.60600        29.45000
C           8.30000        23.31700        29.89500
O           8.39500        22.34900        28.84000
H           8.30500        22.79500        27.95000
C           7.73300        22.84900        31.22600
O           8.45500        21.67700        31.63100
H           8.09000        21.38500        32.51500
C           7.45500        27.01000        30.38500
O           7.70100        27.70300        29.15300
H           7.61700        28.69000        29.29000
C           7.92100        25.57600        30.58300
O           7.21500        25.14300        31.75500
C           7.82800        23.95100        32.26800
O           7.04700        23.66900        33.43800
C           7.70200        24.10800        34.63700
C           7.14500        25.38300        35.24900
O           7.25300        26.40900        34.25200
H           6.93200        26.02200        33.38700
C           7.92100        25.86600        36.46300
O           7.37900        26.97300        37.19800
H           7.83600        27.11100        38.07600
C           8.34400        21.67300        35.24800
O           7.69200        20.92700        34.21100
H           7.79800        19.93900        34.32800
C           7.76600        23.01000        35.68500
O           8.42700        23.49100        36.86400
C           7.91300        24.70100        37.44000
O           8.54400        24.96900        38.70100
C           7.92800        24.66900        39.96200
C           8.52700        23.36900        40.47300
O           8.21200        22.30100        39.56800
H           8.57100        22.57700        38.67600
C           7.95000        22.95000        -0.24500
O           8.50000        21.77400         0.36800
H           8.13500        21.62600         1.28700
C           7.57900        27.04600        40.67200
O           8.25700        27.70900        39.59500
H           8.22500        28.70900        39.60400
C           8.15400        25.69400        -1.00800
O           7.58500        25.27400         0.24100
C           8.09800        24.05200         0.79100
O           7.35800        23.86100         2.00500
C           3.87100        20.41600         0.58100
C           4.05400        18.96600         1.00100
O           3.80000        17.94300         0.02700
H           4.21800        18.28000        -0.81600
C           3.49500        18.74000         2.39600
O           4.07800        17.52400         2.88900
H           3.71200        17.39600         3.81100
C           3.93000        22.89000         1.30100
O           4.23000        23.69400         0.15100
H           4.10300        24.65200         0.40500
C           4.23300        21.44100         1.64300
O           3.51800        21.11100         2.84400
C           3.98400        19.84100         3.32200
O           3.28600        19.65200         4.56200
C           3.89500        20.06700         5.79300
C           3.49700        21.46500         6.23700