# freq=raman b3lyp/6-31+g(d,p) geom=connectivity

310 6000.com

0 1
O           7.52600         7.45300        12.25600
C           8.11700         7.89500        13.48700
C           7.70700         9.29800        13.90500
O           8.09900        10.32600        12.98300
H           7.73200        10.06100        12.09100
C           8.20600         9.63700        15.30000
O           7.86800        10.91000        15.87000
H           8.25200        11.00000        16.78900
C           8.31900         5.46200        14.39700
O           7.76100         4.57400        13.41800
H           8.18300         3.67800        13.56000
C           7.71000         6.85000        14.51300
O           8.13500         7.27400        15.81600
C           7.76000         8.57500        16.29200
O           8.59100         8.62400        17.46100
C           7.92800         8.42700        18.71800
C           8.37400         7.08100        19.26400
O           8.13800         6.08300        18.26000
H           8.46900         6.46900        17.39800
C           7.88500         6.78400        20.67200
O           8.54300         5.54800        20.98800
H           8.20400         5.30300        21.89600
C           8.05500        10.83300        19.60600
O           8.50500        11.40600        18.37000
H           8.47900        12.38600        18.57000
C           8.46200         9.37800        19.77700
O           8.05700         9.20300        21.14300
C           8.36000         7.88100        21.61100
O           7.63300         7.71200        22.83600

