# freq=raman b3lyp/6-31+g(2d,p) geom=connectivity
310 9000.com
310 9000.com
C           8.05300         8.05500         2.76700
0 1
O           8.01400        10.43100         2.21000
H           8.03900        10.02900         1.29400
C           8.10800         9.82100         4.58200
O           7.87200        11.07500         5.23800
H           8.27400        11.20000         6.14500
C           7.96200         5.65700         3.64500
O           7.84800         4.95500         2.39900
H           7.82800         3.97700         2.60700
C           7.51500         7.09900         3.82000
O           7.96100         7.43400         5.14200
C           7.65200         8.76600         5.57700
O           8.44600         8.72800         6.77100
C           7.79100         8.31900         7.98000
C           8.30700         7.00100         8.53400
O           8.09100         5.96900         7.56100
H           8.45300         6.36700         6.71900
C           7.70500         6.69600         9.89600
O           8.34200         5.53400        10.44700
H           7.91400         5.26500        11.30900
C           7.49900        10.76000         8.88000
O           8.24100        11.55000         7.93900
H           8.02100        12.52200         8.01900
C           8.00300         9.34100         9.08600
O           7.43000         9.06900        10.37300
C           7.97000         7.83500        10.86700
O           7.20900         7.58400        12.05800
C           7.74100         8.01000        13.32100
C           7.22200         9.33300        13.85900
O           7.56000        10.36900        12.92500
H           7.33900        10.01300        12.01800
C           7.72600         9.64000        15.26000
O           7.11300        10.78400        15.87200
H           7.53900        10.78200        16.77700
C           7.93900         5.43200        14.06700
O           7.28900         4.58000        13.11300
H           7.62100         3.64700        13.25100
C           7.56900         6.88300        14.32700
O           8.06300         7.25700        15.62100
C           7.49400         8.45000        16.17800
O           8.28500         8.69500        17.35000
C           7.77100         8.19700        18.59400
C           8.41500         6.88400        19.00900
O           8.16200         5.85000        18.04700
H           8.29600         6.41500        17.23300
C           8.17000         6.44500        20.44400
O           9.00600         5.43500        21.02600
H           8.63600         5.20800        21.92700
C           7.55500        10.52300        19.47800
O           7.83900        11.28200        18.29400
H           7.70400        12.26700        18.40700
C           8.24100         9.17800        19.65600
O           7.83300         8.77800        20.97300
C           8.42100         7.55800        21.44800
O           7.66800         7.38600        22.65700
C           8.35900         7.74200        23.86400
C           7.80500         9.11300        24.21700
O           7.94000        10.16200        23.24700
H           7.60000         9.67700        22.44100
C           8.14400         9.59100        25.61900
O           7.37400        10.67100        26.16600
H           7.59200        10.82700        27.12900
C           8.24600         5.27200        24.63400
O           8.08700         4.57000        23.39200
H           8.14200         3.59300        23.59700
C           7.99800         6.73900        24.94700
O           8.47400         7.22400        26.21000
C           7.88700         8.47000        26.61300
O           8.70900         8.58000        27.78400
C           8.24400         8.23300        29.09700
C           8.73900         6.85200        29.49500
O           8.57800         5.72400        28.62300
H           8.55600         5.91400        27.64200
C           8.42600         6.56200        30.95400
O           9.10100         5.41100        31.48200
H           8.69500         5.25600        32.38300
C           8.15700        10.70300        29.77700
O           8.23900        11.36500        28.50700
H           8.09300        12.34800        28.62600
C           8.66800         9.30500        30.08700
O           8.34300         9.02900        31.45700
C           8.76300         7.72200        31.87600
O           7.92300         7.54800        33.02700
C           8.54300         7.92700        34.26400
C           8.03200         9.26700        34.76800
O           8.27400        10.35900        33.86800
H           8.39500         9.99000        32.94600
C           8.39700         9.76600        36.15600
O           7.41600        10.76300        36.47400
H           7.69100        11.14200        37.35700
C           8.59600         5.50900        34.98000
O           8.00400         4.77300        33.90000
H           7.99900         3.78200        34.03400
C           8.28600         6.93900        35.39000
O           8.88400         7.41100        36.60600
C           8.29200         8.60700        37.13400
O           8.97400         8.70400        38.39300
C           8.29100         8.35400        39.60500
C           8.78700         6.99700        40.07600
O           8.50700         6.01000        39.07300
H           8.55100         6.46600        38.18400
C           8.24500         6.68300        -0.59100
O           8.89800         5.55400         0.00800
H           8.56200         5.18900         0.87700
C           7.98700        10.82300        40.32100
O           8.20500        11.55100        39.10400
H           7.94300        12.51300        39.17300
C           8.63700         9.47600        -1.49400
O           8.14500         9.12200        -0.19400
C           8.51500         7.84600         0.34900
O           7.62400         7.65300         1.45800
C           4.19700         4.26700         0.15200
C           4.49500         2.88600        42.77200
O           4.34600         1.92800        41.71500
H           4.55500         2.31100        40.81500
C           3.67400         2.58700         1.96700
O           3.96000         1.27300         2.46800
H           3.88200         1.23200         3.46400
C           4.02400         6.61100         0.99100
O           4.47200         7.24600        -0.21600
H           4.28100         8.21400        -0.05200
C           4.54500         5.21500         1.28900
O           3.88400         5.00600         2.54500
C           4.06500         3.65000         2.98100
O           3.38400         3.49500         4.23400
C           4.10400         3.74100         5.45000
C           3.63700         5.07800         6.00100
O           3.40800         6.13900         5.06100
H           3.30600         5.84800         4.11000
C           4.29600         5.35400         7.34200
O           3.90800         6.58800         7.96300
H           4.35100         6.79600         8.83500
C           4.30900         1.34300         6.19100
O           4.06300         0.52500         5.03800
H           4.58900        -0.32000         5.12900
C           3.72500         2.71100         6.50200
O           4.28900         2.92000         7.80500
C           4.01600         4.22900         8.32500
O           4.62900         4.30000         9.62100
C           3.75900         4.06200        10.73600
C           4.16900         2.71600        11.31100
O           3.73600         1.77400        10.31800
H           3.84900         2.19300         9.41700
C           3.75000         2.48000        12.75200
O           4.53900         1.36300        13.18500
H           4.31400         1.17400        14.14100
C           3.58100         6.54300        11.33000
O           4.22600         7.33100        10.31900
H           3.91100         8.28000        10.33700
C           4.00500         5.15100        11.76800
O           3.28900         4.88900        12.98400
C           3.88300         3.73600        13.59800
O           3.14300         3.54600        14.81300
C           4.01800         3.77100        15.92800
C           3.61900         5.12900        16.48300
O           3.74800         6.17600        15.51000
H           3.15400         5.83600        14.78100
C           4.20500         5.54400        17.82300
O           3.93000         6.79900        18.46200
H           4.21700         6.83700        19.42000
C           4.07500         1.33600        16.74100
O           3.77200         0.56300        15.57000
H           4.02600        -0.39500        15.70300
C           3.62400         2.76500        16.99700
O           4.11900         3.13800        18.29100
C           3.79600         4.44400        18.78900
O           4.61200         4.45900        19.96900
C           4.01200         4.13600        21.23200
C           4.52500         2.77200        21.66400
O           4.53700         1.60800        20.82400
H           4.62100         1.91000        19.87500
C           4.11500         2.39200        23.07700
O           4.78500         1.28600        23.69800
H           4.42800         1.25000        24.63100
C           4.13300         6.60000        21.98000
O           4.64900         7.41400        20.91700
H           4.39000         8.37500        21.01500
C           4.43800         5.14300        22.28700
O           3.77800         4.86000        23.52900
C           4.22300         3.58500        24.01300
O           3.39100         3.48900        25.17800
C           4.13600         3.78900        26.36800
C           3.59300         5.11800        26.86700
O           3.68800         6.20100        25.93000
H           3.45800         5.78300        25.05100
C           4.32200         5.53400        28.13500
O           3.71700         6.72200        28.66500
H           3.81800         6.82000        29.65500
C           4.47900         1.43400        27.01200
O           3.81400         0.72300        25.95800
H           4.13600        -0.22400        25.96000
C           3.86300         2.75400        27.44600
O           4.34300         3.13000        28.74500
C           4.01600         4.46200        29.16800
O           4.76000         4.61200        30.38600
C           4.09300         4.34600        31.62800
C           4.50300         2.98900        32.17600
O           4.07500         1.94000        31.29500
H           4.33300         2.29300        30.39600
C           3.95200         2.65600        33.55300
O           4.48600         1.40400        34.00700
H           4.52200         1.38000        35.00600
C           4.08200         6.79800        32.39200
O           4.25100         7.63000        31.23500
H           3.97000         8.49600        31.65000
C           4.53600         5.37200        32.65900
O           3.99700         5.09500        33.95900
C           4.32800         3.79900        34.48100
O           3.62400         3.76900        35.73100
C           4.45600         4.01700        36.87400
C           4.16300         5.41100        37.40300
O           4.65700         6.38500        36.47300
H           4.51600         6.18600        35.50300
C           4.77200         5.66400        38.77300
O           4.27200         6.92000        39.25400
H           4.49500         6.95100        40.22800
C           3.66900         1.63400        37.66200
O           4.54000         0.87900        36.80800
H           4.35800        -0.10400        36.84400
C           3.96100         3.09200        37.97400
O           4.77500         3.28000        39.14100
C           4.39300         4.53700        39.71900
O           4.98500         4.50800        41.02600
C           8.40300        16.17200         2.81600
C           8.02500        17.57800         3.25100
O           8.50500        18.58200         2.34500
H           8.39800        18.23000         1.41500
C           8.46900        17.96500         4.65200
O           8.00900        19.20200         5.21600
H           8.45500        19.21700         6.11100
C           7.99300        13.76300         3.65100
O           7.73800        13.11700         2.39600
H           7.84100        12.14400         2.60500
C           7.86100        15.25600         3.90200
O           8.32700        15.50300         5.23600
C           8.01700        16.85900         5.59200
O           8.54000        17.06100         6.91300
C           7.82300        16.71800         8.10700
C           8.39800        15.37400         8.52500
O           8.19300        14.34700         7.54400
H           8.21900        14.75500         6.63200
C           7.81200        14.86300         9.83100
O           8.45300        13.63800        10.21700
H           8.03100        13.51200        11.11400
C           8.11400        19.05600         8.90500
O           8.80400        19.64500         7.79300
H           8.57900        20.59400         8.01500
C           8.34800        17.59100         9.23600
O           7.61700        17.29700        10.43500
C           8.09700        15.99600        10.80300
O           7.34700        15.79600        12.01000
C           7.78900        16.01300        13.35800
C           7.41300        17.39900        13.85600
O           7.82500        18.35900        12.87200
H           7.60400        18.04900        11.94800
C           7.93200        17.74700        15.24200
O           7.49000        19.05400        15.63800
H           7.91800        19.17200        16.53500
C           7.82600        13.58000        13.91800
O           7.41700        12.90900        12.71800
H           7.68700        11.94700        12.76500
C           7.31400        14.95000        14.33500
O           7.89200        15.32000        15.59500
C           7.50500        16.59200        16.13400
O           8.13500        16.77000        17.41100
C           7.49500        16.43900        18.65200
C           7.95800        15.03900        19.02000
O           7.29800        14.09500        18.16300
H           7.62900        14.28400        17.23900
C           7.48500        14.70300        20.42500
O           8.29300        13.61900        20.90400
H           7.93300        13.36600        21.80200
C           7.87200        18.89900        19.43100
O           8.16900        19.55900        18.19200
H           8.17700        20.54200        18.37500
C           7.99600        17.41000        19.70900
O           7.38800        17.18900        20.99000
C           7.74100        15.85500        21.38300
O           7.25600        15.56100        22.70100
C           7.99500        16.03700        23.83600
C           7.47800        17.35500        24.39000
O           7.20600        18.39500        23.44000
H           7.16300        17.92900        22.55600
C           8.03300        17.66900        25.77000
O           7.32700        18.78900        26.32400
H           7.70900        18.80800        27.24800
C           8.43600        13.64800        24.68100
O           7.95000        12.98400        23.50500
H           8.05000        11.99400        23.59700
C           7.75400        14.98700        24.90900
O           8.26400        15.31000        26.21100
C           7.77700        16.54300        26.75900
O           8.67600        16.69200        27.86800
C           8.14700        16.38400        29.16600
C           8.72600        15.06800        29.65800
O           8.56500        14.04900        28.66100
H           8.72300        14.35700        27.72200
C           8.11000        14.73400        31.00700
O           8.82200        13.58400        31.48700
H           8.61700        13.45500        32.45800
C           7.86000        18.76900        29.88700
O           8.08300        19.54400        28.70000
H           8.17800        20.47900        29.04200
C           8.53100        17.43900        30.19000
O           8.01400        17.19600        31.50700
C           8.27000        15.87300        32.00100
O           7.40100        15.61500        33.11400
C           7.95300        16.04900        34.36600
C           7.59800        17.41300        34.93500
O           7.94600        18.42600        33.98000
H           7.70000        17.99200        33.11300
C           8.23400        17.78900        36.26300
O           7.70500        19.04500        36.71300
H           8.07400        19.24300        37.62100
C           8.12800        13.68600        35.13500
O           7.76700        12.94500        33.96100
H           7.88500        11.96600        34.13000
C           7.57100        15.06300        35.45800
O           8.13100        15.35900        36.74500
C           7.80300        16.67800        37.20700
O           8.74100        16.76800        38.28900
C           8.09000        16.59000        39.55600
C           8.45200        15.17800        39.98500
O           7.85400        14.21300        39.10700
H           7.82700        14.56100        38.17000
C           7.98300        14.83500        -0.66400
O           8.35600        13.59700        -0.04000
H           8.07200        13.54400         0.91700
C           8.30500        19.06200        40.32900
O           8.49600        19.87600        39.16300
H           8.29800        20.85300        39.23900
C           8.69900        17.60500        -1.55800
O           8.28700        17.24100        -0.23300
C           8.48500        15.91500         0.28000
O           7.83500        15.79500         1.55300
C           3.93800        12.29900         0.35500
C           4.37900        10.90800        42.84400
O           4.10200         9.97100        41.79300
H           4.55400        10.29800        40.96300
C           3.61700        10.61600         2.07600
O           3.93200         9.29800         2.54700
H           3.47700         9.20800         3.43300
C           4.02000        14.72200         1.32500
O           4.47300        15.37400         0.12900
H           4.23400        16.33400         0.27900
C           4.38000        13.25100         1.45400
O           3.77100        12.91300         2.70800
C           4.03300        11.58200         3.17400
O           3.09400        11.63600         4.25800
C           3.73900        11.80100         5.52900
C           3.51000        13.21200         6.04400
O           4.10800        14.13200         5.11900
H           3.87600        13.91500         4.17100
C           3.95500        13.43900         7.47900
O           3.69100        14.73300         8.04000
H           4.01500        14.76800         8.98600
C           3.81100         9.46700         6.28500
O           3.34300         8.77300         5.11900
H           3.26500         7.78300         5.23000
C           3.25100        10.84400         6.60400
O           3.79800        11.10100         7.90600
C           3.39100        12.38000         8.41300
O           4.24200        12.40700         9.56900
C           3.55400        12.17100        10.80600
C           3.88000        10.75900        11.26600
O           3.53200         9.80400        10.25300
H           3.56300        10.24600         9.35700
C           3.19700        10.31700        12.55000
O           3.46100         9.05400        13.17700
H           3.22100         9.07800        14.14700
C           3.47400        14.62000        11.65900
O           4.02100        15.32900        10.53800
H           3.93900        16.30200        10.75000
C           3.93700        13.18700        11.86900
O           3.30000        12.71400        13.06400
C           3.59700        11.39400        13.54500
O           2.88800        11.38200        14.79300
C           3.53600        11.87300        15.97500
C           3.04200        13.22500        16.46300
O           3.40100        14.22100        15.49300
H           3.06400        13.86300        14.62200
C           3.57700        13.66700        17.81500
O           3.20800        14.95800        18.32200
H           3.61100        15.04800        19.23200
C           3.61600         9.46500        16.86600
O           3.15200         8.78600        15.69000
H           3.43700         7.83300        15.79600
C           3.28400        10.92400        17.13500
O           4.04500        11.29500        18.29300
C           3.36200        12.47600        18.73600
O           4.05000        12.71400        19.97200
C           3.66000        12.33300        21.30000
C           4.28700        11.07200        21.87300
O           4.17200        10.04200        20.88000
H           4.47200        10.39100        19.99200
C           3.66000        10.74700        23.21800
O           4.31000         9.59700        23.78000
H           3.80500         9.33600        24.60200
C           3.34100        14.88400        21.81600
O           4.15700        15.62600        20.89900
H           4.05700        16.60800        21.06400
C           3.86400        13.51800        22.22900
O           3.33900        13.20600        23.52800
C           3.86700        11.98700        24.07200
O           3.12200        11.91100        25.29600
C           3.92600        12.02200        26.48000
C           3.87000        13.39200        27.13600
O           4.19100        14.36700        26.13400
H           3.80900        14.08200        25.25500
C           4.60900        13.65900        28.43700
O           4.50800        15.01800        28.88700
H           4.50600        14.99900        29.88700
C           4.00700         9.61400        27.14800
O           3.38400         8.85900        26.09900
H           3.54000         7.89000        26.29200
C           3.65500        11.02400        27.59400
O           4.16800        11.32400        28.90000
C           3.90400        12.66300        29.34400
O           4.54200        12.61900        30.62800
C           3.85400        12.45900        31.87600
C           4.04800        11.02500        32.34000
O           3.43600        10.21200        31.32800
H           3.79200        10.58100        30.47000
C           3.41900        10.91200        33.71900
O           3.82000         9.58600        34.09400
H           3.60100         9.38700        35.04900
C           3.63700        14.85800        32.61500
O           3.92400        15.47200        31.35000
H           3.65900        16.43600        31.37500
C           4.20700        13.48700        32.93900
O           3.65000        13.16900        34.22300
C           4.00000        11.87700        34.74000
O           3.17200        11.81100        35.91000
C           3.90400        11.99500        37.13100
C           3.68900        13.40300        37.65900
O           4.16200        14.38100        36.72100
H           3.82700        14.09800        35.82300
C           4.35800        13.56700        39.01400
O           3.87500        14.81700        39.52600
H           4.35400        14.85500        40.40300
C           4.14600         9.59800        37.88800
O           3.58200         8.76600        36.86400
H           3.95200         7.85000        37.01800
C           3.51700        10.95300        38.16800
O           4.11400        11.16000        39.45700
C           3.86400        12.48200        39.95800
O           4.62800        12.54300        41.17100
C           8.22900        24.23200         2.79600
C           7.62000        25.55000         3.24600
O           7.97600        26.61900         2.35900
H           7.81400        26.28900         1.42900
C           8.27200        25.85800         4.58400
O           7.70700        27.04000         5.16900
H           8.25900        27.31400         5.95600
C           8.48200        21.80700         3.49100
O           7.88700        21.12000         2.38100
H           8.11300        20.14600         2.40600
C           7.98100        23.19000         3.87400
O           8.70200        23.50900         5.07300
C           8.14300        24.72500         5.59000
O           8.82200        24.97900         6.82900
C           8.26000        24.61300         8.09800
C           8.58800        23.22200         8.61600
O           8.25300        22.19500         7.67100
H           8.57400        22.39400         6.74500
C           8.07000        22.83400         9.99100
O           8.69900        21.64900        10.50000
H           8.14000        21.24000        11.22200
C           8.07100        26.99900         8.91800
O           8.51900        27.73600         7.77100
H           8.07700        28.63100         7.81800
C           8.60700        25.60500         9.19700
O           7.92200        25.24900        10.40700
C           8.29600        23.98100        10.96300
O           7.41600        23.66100        12.05100
C           7.70600        24.16700        13.36200
C           7.28800        25.50000        13.96200
O           7.51300        26.46200        12.92100
H           7.42900        25.91500        12.08800
C           7.98900        25.87800        15.25600
O           7.55000        27.07600        15.91300
H           8.06300        27.43000        16.69500
C           7.79600        21.72900        14.05400
O           7.47700        20.90300        12.92500
H           7.76400        19.97500        13.16100
C           7.30400        23.12600        14.39500
O           8.05700        23.41100        15.58200
C           7.76800        24.68600        16.17300
O           8.67800        24.77700        17.27800
C           8.07100        24.55100        18.55800
C           8.68100        23.29600        19.16000
O           8.38200        22.27100        18.20200
H           8.47300        22.57600        17.25400
C           8.11600        22.89000        20.51100
O           8.46100        21.63100        21.10600
H           8.13300        21.46000        22.03500
C           7.96400        27.04400        19.42900
O           8.53400        27.85500        18.39100
H           8.31300        28.79900        18.63600
C           8.34400        25.58700        19.63600
O           7.77800        25.28800        20.92100
C           8.35800        24.07800        21.42900
O           7.51600        24.01900        22.58900
C           8.10900        24.12000        23.89200
C           7.59000        25.48000        24.33100
O           7.79400        26.64200        23.51400
H           7.42200        26.39700        22.61900
C           7.96700        25.79700        25.76900
O           7.35300        26.98900        26.28100
H           7.87600        27.14400        27.11900
C           8.35100        21.73200        24.60900
O           7.75000        20.98100        23.54500
H           8.09500        20.05000        23.66000
C           7.64100        23.05100        24.86600
O           8.17300        23.42100        26.14600
C           7.62700        24.63400        26.68600
O           8.48400        24.90900        27.80300
C           7.95000        24.49500        29.07000
C           8.46100        23.18400        29.64300
O           8.52200        22.18900        28.61100
H           8.47700        22.64200        27.72100
C           7.92800        22.84400        31.02600
O           8.47200        21.69200        31.68600
H           7.89200        21.69500        32.50100
C           7.65800        27.00000        29.89600
O           8.07000        27.55900        28.64000
H           7.83200        28.52700        28.71500
C           8.18600        25.58900        30.09800
O           7.48100        25.24000        31.29800
C           8.05600        24.07500        31.90800
O           7.29700        23.89500        33.11200
C           7.95000        24.34300        34.30900
C           7.35100        25.64300        34.81900
O           7.44800        26.64600        33.79700
H           7.30500        26.15300        32.93900
C           7.88700        26.08500        36.17100
O           6.99200        27.09500        36.65900
H           7.38900        27.41000        37.52100
C           8.35600        21.94600        35.07300
O           7.69900        21.07800        34.13800
H           7.89800        20.11100        34.29400
C           7.70700        23.28700        35.37600
O           8.45400        23.77900        36.49800
C           7.85100        24.91300        37.13900
O           8.61200        25.17600        38.32700
C           7.98400        24.83300        39.57100
C           8.56200        23.51200        40.05400
O           8.49000        22.55000        38.99200
H           8.81600        22.95700        38.13900
C           7.94900        23.03900        41.36200
O           8.68000        21.91900        41.88200
H           8.29400        21.70500        42.77900
C           7.65300        27.27300        40.37200
O           8.21900        27.85000        39.18600
H           8.11800        28.84400        39.22300
C           8.20300        25.88600        -1.41700
O           7.53600        25.37000        -0.25600
C           8.07500        24.16800         0.31100
O           7.52500        23.86300         1.60100
C           3.96500        20.53100         0.27200
C           4.29900        19.11600        42.77600
O           3.86700        18.12500        41.83200
H           4.31800        18.45500        41.00300
C           3.69200        18.79400         2.08000
O           4.08200        17.50300         2.57200
H           3.79200        17.41200         3.52400
C           4.23700        22.92000         1.12500
O           4.80800        23.86600         0.20900
H           4.39800        24.75900         0.39500
C           4.43800        21.43800         1.39600
O           3.76600        21.09800         2.61800
C           4.14900        19.80800         3.11500
O           3.46900        19.69800         4.37400
C           4.17400        20.05100         5.57300
C           3.63800        21.37700         6.08800