# freq=raman b3lyp/6-31+g(d,p) geom=connectivity

310 9000.com

0 1
O           7.20900         7.58400        12.05800
C           7.74100         8.01000        13.32100
C           7.22200         9.33300        13.85900
O           7.56000        10.36900        12.92500
H           7.33900        10.01300        12.01800
C           7.72600         9.64000        15.26000
O           7.11300        10.78400        15.87200
H           7.53900        10.78200        16.77700
C           7.93900         5.43200        14.06700
O           7.28900         4.58000        13.11300
H           7.62100         3.64700        13.25100
C           7.56900         6.88300        14.32700
O           8.06300         7.25700        15.62100
C           7.49400         8.45000        16.17800
O           8.28500         8.69500        17.35000
C           7.77100         8.19700        18.59400
C           8.41500         6.88400        19.00900
O           8.16200         5.85000        18.04700
H           8.29600         6.41500        17.23300
C           8.17000         6.44500        20.44400
O           9.00600         5.43500        21.02600
H           8.63600         5.20800        21.92700
C           7.55500        10.52300        19.47800
O           7.83900        11.28200        18.29400
H           7.70400        12.26700        18.40700
C           8.24100         9.17800        19.65600
O           7.83300         8.77800        20.97300
C           8.42100         7.55800        21.44800
O           7.66800         7.38600        22.65700

