# freq=raman b3lyp/6-31+g(d,p) geom=connectivity

300 5000.com

0 1
O           7.70300         7.59000        22.51300
C           8.11000         7.98800        23.83000
C           7.59600         9.37200        24.19300
O           8.14600        10.35500        23.30400
H           7.76500        10.16900        22.39800
C           7.99600         9.83500        25.58400
O           7.32800        10.93900        26.21100
H           7.74100        11.19700        27.08400
C           8.41200         5.59800        24.80900
O           8.20600         4.96600        23.53700
H           8.32000         4.00100        23.77400
C           7.82500         6.99400        24.94500
O           8.19600         7.35500        26.28300
C           7.82900         8.70800        26.59100
O           8.67600         8.88900        27.73500
C           8.03500         8.55400        28.97500
C           8.61300         7.22700        29.43700
O           8.35800         6.14500        28.52900
H           8.73500         6.47400        27.66400
C           7.95900         6.85700        30.75900
O           8.43300         5.67300        31.41400
H           7.96200         5.47100        32.27300
C           7.95300        11.05800        29.75000
O           8.43100        11.68700        28.55200
H           8.43100        12.68100        28.66200
C           8.32700         9.61100        30.02800
O           7.70100         9.16700        31.24000
C           8.21400         7.94500        31.79000
O           7.38700         7.75200        32.94600

