# freq=raman b3lyp/6-31+g(2d,p) geom=connectivity

500 5403/5403.com

0 1
C           9.78000         8.57900         3.08800
C           9.55800        10.01800         3.52600
O          10.17700        10.87100         2.55200
H           9.95000        10.61100         1.61300
C          10.24700        10.44900         4.81000
O           9.56800        11.67100         5.13600
H          10.05100        12.43000         4.69900
C           9.62600         6.14200         3.80000
O           9.16200         5.06700         4.63000
H           9.30400         4.19300         4.16700
C           9.46100         7.59800         4.20400
O          10.30500         8.00800         5.28900
C           9.95600         9.31200         5.77600
O          10.53200         9.37800         7.08800
C           9.80000         8.88900         8.22100
C           9.73400         7.39100         8.47200
O           9.09900         6.63200         7.43200
H           9.56000         6.69100         6.54700
C           9.01000         6.89800         9.71400
O           9.03500         5.46400         9.73900
H           8.79100         5.23900         8.79500
C           9.99500        10.96200         9.22400
O          10.63000        11.81700        10.18600
H          10.14400        12.68600        10.09000
C          10.31400         9.50400         9.51300
O           9.68400         9.08200        10.73100
C           9.62900         7.65500        10.87800
O           8.82100         7.47900        12.05100
C           9.42200         7.59500        13.34900
C           8.91800         8.93700        13.85500
O           9.18700        10.07300        13.02100
H           9.17800         9.72900        12.08200
C           9.54100         9.23000        15.21000
O           9.25000        10.51900        15.76800
H           9.70100        11.30300        15.34000
C           9.02300         5.15100        13.98200
O           8.51200         4.27600        14.99800
H           8.60300         3.38900        14.54600
C           8.88700         6.61200        14.37700
O           9.41400         6.91100        15.67800
C           9.12600         8.19700        16.24500
O           9.86300         8.15900        17.47600
C           9.13500         7.95100        18.69600
C           9.23100         6.47100        19.02600
O           8.55900         5.65200        18.05800
H           9.00500         5.59900        17.16500
C           8.49200         6.36500        20.35100
O           8.21400         4.99100        20.65600
H           7.76600         4.73100        19.80100
C          10.16300        10.12000        19.55600
O          10.65300        10.98100        20.59400
H          10.44600        11.93000        20.35800
C           9.95600         8.63100        19.77900
O           9.44600         8.39400        21.09900
C           9.32700         7.00700        21.44700
O           8.66100         6.92200        22.71500
C           9.21600         7.17700        24.01400
C           9.13200         8.57000        24.61600
O           9.83900         9.46600        23.74700
H           9.50500         9.42300        22.80500
C           9.79500         8.79900        25.96500
O           9.48800        10.05100        26.59500
H           9.61900        10.78600        25.93100
C           9.55400         4.84300        24.57900
O           9.31100         3.66600        25.36400
H           9.04900         2.94400        24.72400
C           8.96200         6.14300        25.09900
O           9.63400         6.47800        26.32200
C           9.41000         7.73400        26.97900
O          10.28400         7.67900        28.11500
C           9.77100         7.33600        29.41100
C           9.52300         5.87800        29.76400
O           8.79000         5.13200        28.78100
H           9.45600         4.85500        28.08900
C           8.75300         5.69000        31.06000
O           8.45200         4.32900        31.40300
H           7.77900         3.97500        30.75400
C          10.50400         9.44700        30.30400
O          10.98100        10.55500        31.08100
H          10.54300        11.39100        30.75000
C          10.46800         7.95800        30.60900
O           9.64900         7.84800        31.78200
C           9.55300         6.45300        32.10300
O           8.79400         6.33300        33.31600
C           9.54000         6.29400        34.54100
C           9.43400         7.71600        35.06600
O           9.95200         8.74900        34.21500
H           9.86000         8.48700        33.25500
C          10.24000         7.73000        36.35400
O          10.10100         8.99400        37.02000
H          10.05000         9.64500        36.26400
C           9.03900         3.87500        34.94500
O           8.67100         2.69800        35.67900
H           9.10500         1.90500        35.25200
C           9.00000         5.27600        35.53300
O           9.88600         5.41500        36.65300
C           9.81000         6.66600        37.35100
O          10.59200         6.53000        38.54600
C           9.84600         6.67000        39.76400
C           9.57700         5.21500        40.11400
O           8.77300         4.58600        39.10500
H           9.21300         4.74500        38.22100
C           8.88700         5.10700        41.46400
O           8.36700         3.78600        41.67200
H           8.15800         3.44700        40.75400
C          10.59600         8.77900        40.66000
O          10.67500         9.70600        41.75200
H          10.49800        10.59600        41.33200
C          10.30600         9.74700        -0.94800
O           9.70000         9.47100         0.32300
C           9.34200         8.15600         0.77200
O           8.80300         8.56700         2.03700
C           4.57800         4.36000         1.53900
C           4.74900         2.87100         1.79100
O           4.34700         1.98100         0.74000
H           4.70600         2.26800        -0.14800
C           4.17100         2.52700         3.15400
O           4.89200         1.29700         3.31700
H           4.95100         1.00800         4.27200
C           5.10700         6.64600         2.39600
O           4.02100         7.56000         2.60800
H           4.28800         8.44300         2.22100
C           5.06300         5.16500         2.73400
O           4.40600         4.83100         3.96400
C           4.57600         3.44500         4.29600
O           3.98200         3.24900         5.58800
C           4.71300         3.59300         6.77300
C           4.32700         4.97800         7.26500
O           4.69700         5.94300         6.27000
H           4.66900         5.60800         5.32900
C           4.94300         5.33800         8.60700
O           4.77300         6.65800         9.14500
H           4.80300         7.29600         8.37600
C           5.26000         1.20700         7.55200
O           5.02900         0.69700         6.23100
H           5.25300        -0.27600         6.17000
C           4.47700         2.48800         7.79100
O           4.97700         2.97800         9.04300
C           4.43500         4.22300         9.50600
O           5.26600         4.07900        10.66700
C           4.77400         3.59800        11.92600
C           5.34700         2.24700        12.32100
O           5.62500         1.45600        11.15700
H           5.94100         2.11000        10.47000
C           4.56500         1.69300        13.50100
O           5.23100         0.47000        13.84600
H           4.74800         0.12300        14.65000
C           4.97800         6.02000        12.90700
O           5.16000         6.97300        13.96300
H           5.23700         7.84200        13.47400
C           4.99500         4.51400        13.11800
O           4.29600         3.98000        14.25200
C           4.63600         2.65200        14.67800
O           3.96200         2.32100        15.90000
C           4.47300         2.86300        17.12700
C           3.95100         4.20800        17.60500
O           4.18000         5.35800        16.77800
H           3.82400         5.15700        15.86600
C           4.35300         4.57400        19.02400
O           3.56700         5.59800        19.65300
H           3.50700         6.29600        18.93900
C           9.51400        33.72900        17.96200
O           9.34400        32.99200        16.74200
H           9.51200        32.02000        16.90800
C           4.17200         1.81000        18.18200
O           4.62900         2.14300        19.50100
C           4.21500         3.42200        20.00600
O           5.07900         3.62800        21.13300
C           4.41600         3.18000        22.32300
C           4.87200         1.78500        22.71800
O           4.20000         0.89900        21.81200
H           4.20400         1.36000        20.92400
C           4.29900         1.33300        24.05100
O           4.86300         0.02700        24.23800
H           4.57500        -0.33900        25.12300
C           4.36700         5.54900        23.22200
O           5.30700         6.22700        24.06900
H           5.65000         7.01600        23.56000
C           4.83200         4.11900        23.44500
O           4.29400         3.65800        24.69300
C           4.71600         2.34900        25.10200
O           4.04300         2.01800        26.32600
C           4.96600         2.09500        27.42200
C           4.60300         3.45000        28.00700
O           4.86900         4.54000        27.11200
H           4.64300         4.31700        26.16400
C           5.41200         3.62500        29.28200
O           5.36200         5.02100        29.61300
H           5.26700         5.16300        28.62700
C           9.65500        32.80900        28.05300
O           9.36000        32.29600        26.74600
H           9.76700        31.38300        26.71600
C           4.60500         1.04900        28.46500
O           4.88600         1.32000        29.84600
C           4.69300         2.68700        30.23700
O           5.55000         2.64000        31.38600
C           4.90200         2.28900        32.61700
C           5.51400         1.09800        33.33600
O           5.68800         0.12800        32.29300
H           5.65600         0.58500        31.40400
C           9.09000        33.67200        34.56700
O           9.78700        32.56300        35.15300
H          10.63900        32.86900        35.57800
C           5.24900         4.74700        33.53900
O           5.59500         5.30000        34.81700
H           5.71300         6.29200        34.76900
C           4.93400         3.27800        33.77100
O           3.95800         2.89100        34.75000
C           4.57900         1.83000        35.48900
O           3.89200         1.63900        36.73500
C           4.67300         1.86700        37.91700
C           4.45500         3.25500        38.49800
O           4.76000         4.30500        37.56900
H           4.61100         4.09300        36.60300
C           5.13700         3.42700        39.84500
O           4.56800         4.67500        40.26800
H           4.68500         5.32500        39.51700
C           8.90300        32.49600        38.99000
O          10.26400        32.04300        39.02500
H          10.29200        31.06100        38.83800
C           4.17700         0.92800        39.00500
O           4.77200         1.14000        40.29300
C           4.72900         2.43100        40.91900
O           5.60000         2.34300        42.05600
C          10.94300        16.70100         2.35800
C          11.37100        18.01100         3.00000
O          12.02200        18.80500         1.99700
H          11.38600        18.85100         1.22700
C          12.19800        17.78100         4.25400
O          12.59600        19.05600         4.77700
H          12.63700        19.65800         3.98000
C          10.31000        14.46500         2.76200
O           9.52200        13.39500         3.30300
H           9.84900        12.60000         2.79300
C          10.16000        15.85800         3.35100
O          10.92800        15.76900         4.56000
C          11.22400        17.04000         5.15600
O          11.92500        16.76900         6.37900
C          11.10900        16.70200         7.55700
C          10.44600        15.37700         7.89500
O           9.86200        14.54900         6.87800
H          10.41400        14.48600         6.04700
C           9.54000        15.47500         9.11100
O           8.77400        14.29900         9.41100
H           8.32600        14.16900         8.52600
C          12.57300        18.50900         8.49300
O          12.13800        19.69600         7.81300
H          12.30600        19.68900         6.82700
C          11.89900        17.17500         8.76700
O          11.03900        17.23400         9.91300
C          10.41600        15.98400        10.24400
O           9.85200        16.08800        11.55900
C          10.78200        16.04400        12.65100
C          10.79200        17.39500        13.34900
O          11.72900        18.11400        12.53500
H          11.81500        17.88700        11.56500
C          11.41900        17.45600        14.73200
O          11.34800        18.75800        15.33100
H          11.95700        19.37800        14.83600
C          10.29700        13.69000        13.32900
O           9.56200        12.91600        14.28800
H           8.57700        13.04300        14.16700
C          10.13300        15.15500        13.69900
O          10.63900        15.29100        15.03500
C          10.72200        16.54400        15.72900
O          11.46300        16.17700        16.90200
C          10.68800        16.30100        18.10300
C          10.31100        14.87100        18.45700
O           9.39600        14.40300        17.45600
H           9.87200        14.51600        16.58300
C           9.74900        14.55500        19.83300
O           9.70000        13.12100        19.84800
H           9.18100        12.92900        19.01500
C          12.12000        18.18500        19.23500
O          11.15100        19.18900        19.56900
H          11.79300        19.93100        19.75800
C          11.53200        16.78400        19.27100
O          10.87700        16.48100        20.51200
C          10.67200        15.11600        20.90300
O           9.95100        15.30400        22.12900
C          10.82200        15.43100        23.26300
C          10.79000        16.84300        23.82400
O          11.66800        17.64300        23.01900
H          11.31400        17.67300        22.08400
C          11.23700        17.03300        25.26400
O          10.76400        18.18900        25.97000
H          10.92400        18.17700        26.95700
C          10.22700        12.97700        23.89200
O           9.46600        11.97200        24.57800
H           9.85300        11.15800        24.14400
C          10.32900        14.43800        24.30200
O          10.97600        14.57900        25.57500
C          10.83700        15.87800        26.16800
O          11.60700        16.08000        27.36300
C          11.19300        15.54400        28.62800
C          10.76400        14.09400        28.78900
O           9.66700        13.79300        27.91400
H          10.03000        13.99000        27.00300
C          10.15400        13.85100        30.16000
O           9.53000        12.57500        30.36700
H           8.69500        12.55600        29.81800
C          12.64600        17.34800        29.70100
O          11.55600        18.28000        29.66000
H          11.84300        19.21700        29.85800
C          12.18500        15.90000        29.72200
O          11.58600        15.63400        30.99900
C          11.12200        14.29800        31.24200
O          10.48200        14.22700        32.52500
C          11.20400        14.53800        33.72500
C          11.10200        15.90400        34.38500
O          11.34100        16.96400        33.44700
H          11.47400        16.67600        32.49900
C          11.90900        16.13400        35.65200
O          11.90400        17.42400        36.28100
H          12.28800        18.01400        35.57200
C          10.69500        12.23300        34.28300
O           9.79100        11.31900        34.92200
H           9.66900        10.41800        34.50700
C          10.67100        13.64800        34.83600
O          11.44000        13.78000        36.04100
C          11.30200        15.10000        36.58700
O          12.16800        15.04600        37.72900
C          11.30600        14.93800        38.87100
C          11.30100        13.50200        39.36900
O          10.60500        12.55100        38.55100
H          11.10700        12.49500        37.68800
C          10.41500        13.51300        40.60400
O           9.99800        12.21600        41.05400
H           9.33700        11.91600        40.36700
C          12.27000        17.20800        39.52500
O          13.29500        17.76600        40.36000
H          14.14500        17.24200        40.41200
C          11.92400        15.79500        39.96400
O          11.21600        15.73200        41.21100
C          11.14200        14.36300        41.63400
O          10.58600        14.43300        42.95500
C           5.94800        12.77900         0.02300
C           6.35900         8.86300        42.25200
O           5.81900         7.97500        41.26300
H           6.26200         8.20400        40.39600
C           5.22300        11.17100         1.84700
O           5.26200         9.80900         2.29600
H           6.12500         9.35700         2.07200
C           6.20900        15.17700         0.91800
O           6.29200        16.10300         2.01200
H           5.99500        17.02100         1.75000
C           6.37500        13.68700         1.16600
O           5.60200        13.47800         2.35700
C           5.77900        12.14900         2.86900
O           4.95100        12.04200         4.03500
C           5.55000        12.14600         5.33500
C           5.63100        13.55600         5.89800
O           6.32400        14.49100         5.05900
H           6.06700        14.31600         4.10800
C           6.12300        13.61500         7.33500
O           5.79800        14.86500         7.96000
H           6.39200        15.51800         7.48900
C           5.03100         9.72300         5.77400
O           4.75900         8.57200         6.58700
H           4.75700         7.75300         6.01300
C           5.03500        11.13200         6.34400
O           5.76600        11.14500         7.57900
C           5.56800        12.45100         8.13900
O           6.35300        12.49700         9.33900
C           5.65500        12.19900        10.55600
C           5.50900        10.73800        10.94800
O           5.09200         9.82100         9.92500
H           5.60900        10.12200         9.12400
C           4.68700        10.35800        12.16900
O           4.78100         8.93000        12.26100
H           4.36500         8.68100        11.38600
C           5.47900        14.50300        11.41300
O           5.41400        15.51400        12.42900
H           5.47100        16.42400        12.01900
C           5.98400        13.10500        11.73200
O           5.16800        12.57300        12.78600
C           5.22600        11.23100        13.29100
O           4.69300        11.28100        14.62300
C           5.59000        11.51300        15.71900
C           5.59200        12.97400        16.14000
O           6.17100        13.86000        15.17100
H           5.66300        13.72300        14.32000
C           6.18400        13.24000        17.51400
O           5.62400        14.45400        18.03500
H           6.02100        15.16400        17.45300
C           5.07200         9.20100        16.43000
O           4.48900         8.22000        17.30000
H           4.42800         7.40600        16.72100
C           5.12700        10.65100        16.88200
O           5.92200        10.92800        18.04400
C           5.65100        12.24900        18.53600
O           6.39300        12.27500        19.76400
C           5.64100        11.92000        20.93400
C           5.87300        10.44600        21.22200
O           5.94000         9.41900        20.22100
H           5.86600         9.74800        19.27900
C           5.30800        10.06400        22.58000
O           5.64800         8.68300        22.77600
H           5.75100         8.36400        21.83400
C           6.26600        14.11000        22.01800
O           6.76300        14.92600        23.08800
H           6.61100        15.85700        22.75700
C           6.29200        12.59500        22.13000
O           5.70200        12.30900        23.40700
C           5.79100        10.91600        23.74200
O           5.05800        10.62000        24.94000
C           5.83000        10.79500        26.13600
C           5.70600        12.18800        26.73300
O           6.00400        13.31800        25.90000
H           5.87400        13.01000        24.95800
C           6.50500        12.31800        28.02000
O           6.63300        13.59800        28.65500
H           6.70200        14.32200        27.96900
C           5.26300         8.34600        26.86100
O           4.52200         7.55100        27.79800
H           4.59800         6.66600        27.33900
C           5.28700         9.83300        27.18000
O           6.16900         9.93100        28.30800
C           5.99600        11.21200        28.93100
O           6.63800        11.25500        30.21300
C           5.84600        11.04300        31.39100
C           6.15700         9.64200        31.89300
O           6.05300         8.54600        30.97300
H           6.10900         8.97900        30.07400
C           5.47500         9.27400        33.20000
O           5.84100         7.94800        33.60700
H           5.78800         7.39600        32.77500
C           6.11400        13.41900        32.44500
O           6.46500        14.14700        33.63100
H           6.32900        15.08200        33.30200
C           6.24100        11.91000        32.57600
O           5.69700        11.56500        33.85800
C           6.08600        10.23000        34.21200
O           5.48400         9.92000        35.47700
C           6.12300        10.37300        36.68000
C           6.11500        11.76800        37.28300
O           6.49300        12.70100        36.26100
H           6.03700        12.52700        35.38800
C           6.76200        11.89200        38.65300
O           6.31900        13.09800        39.29200
H           6.28100        13.93000        38.73800
C           5.68900         7.99900        37.37600
O           5.16900         6.94700        38.20200
H           5.49600         6.04900        37.90500
C           5.72000         9.45200        37.82000
O           6.69600         9.40600        38.87000
C           6.45900        10.67000        39.50600
O           7.28800        10.43100        40.65300
C          13.41900        24.86200         2.52600
C          13.34200        26.29500         3.02800
O          13.79400        27.39000         2.21900
H          13.66400        27.16500         1.25300
C          14.02400        26.14500         4.37800
O          14.49900        27.43700         4.78600
H          14.43800        27.98600         3.95200
C          12.31100        22.62500         2.92800
O          11.76500        21.78800         3.95700
H          10.78400        21.98000         3.94800
C          12.62800        23.99900         3.49600
O          13.06400        24.03700         4.86200
C          13.12400        25.38800         5.34200
O          13.75800        25.04200         6.58200
C          12.96400        24.88500         7.76700
C          13.06500        23.43200         8.20500
O          12.47900        22.56400         7.22400
H          12.72100        22.98900         6.35200
C          12.27600        23.06100         9.45000
O          12.65600        21.72200         9.80100
H          12.61400        21.08100         9.03400
C          13.60300        27.13900         8.53000
O          14.21300        28.14800         9.34800
H          14.18300        28.99900         8.82300
C          13.56800        25.67000         8.92000
O          12.96900        25.34200        10.18200
C          12.83600        23.95900        10.54100
O          11.94900        23.94300        11.66900
C          12.67800        23.88400        12.90300
C          12.91700        25.24200        13.54400
O          13.46500        26.18900        12.61500
H          13.09100        25.97400        11.71300
C          13.71500        25.14000        14.83300
O          14.29300        26.31400        15.42300
H          15.16900        26.55200        15.00300
C          11.62500        21.70300        13.49200
O          12.56700        20.82100        14.11900
H          13.09600        20.35500        13.40900
C          11.76300        23.16600        13.88200
O          12.19900        23.22300        15.24800
C          12.67100        24.49100        15.72700
O          13.41900        24.36000        16.94400
C          12.75300        24.20800        18.20600
C          12.81000        22.73400        18.57400
O          11.92500        22.03200        17.68900
H          12.30000        21.89700        16.77200
C          12.36700        22.57600        20.01900
O          12.33700        21.18800        20.38500
H          11.74900        21.07600        21.18600
C          13.55500        26.46600        18.81800
O          14.12300        27.48500        19.65400
H          14.23400        28.36000        19.18400
C          13.47000        25.01900        19.27400
O          13.31100        24.72000        20.66800
C          13.25100        23.32600        21.00200
O          12.45300        23.51400        22.17900
C          13.20700        23.41900        23.39600
C          13.63600        24.77800        23.92500
O          14.49000        25.49400        23.02100
H          14.05100        25.66900        22.14000
C          14.28700        24.57500        25.28400
O          14.95400        25.71100        25.85400
H          15.37700        26.16800        25.07200
C          11.46500        21.52400        23.93800
O          12.05100        20.30600        23.45500
H          11.56200        19.61100        23.98100
C          12.25700        22.74500        24.37300
O          12.86100        22.73700        25.67500
C          13.27500        23.98400        26.25200
O          13.91700        23.77100        27.51800
C          12.87700        23.77600        28.50700
C          12.72200        22.29800        28.82600
O          11.89600        21.65300        27.84600
H          12.32700        21.94900        26.99400
C          12.19100        22.01900        30.22300
O          12.13500        20.60300        30.44800
H          12.14700        20.46500        31.43800
C          13.34900        26.01800        29.31600
O          14.05200        26.80000        30.29300
H          14.47400        27.57700        29.82700
C          13.48300        24.54600        29.66900
O          12.89000        24.16400        30.91800
C          13.08500        22.77000        31.19700
O          12.70500        22.43400        32.53900
C          13.45500        22.61600        33.74900
C          13.68600        24.02500        34.27000
O          13.95100        25.08700        33.34100
H          13.48600        25.09700        32.45600
C          14.66200        24.03800        35.43500
O          14.95600        25.35100        35.93300
H          15.55400        25.79700        35.26700
C          12.95300        20.40700        34.35100
O          11.95800        19.89900        33.45000
H          12.06500        18.90400        33.45600
C          12.97800        21.80600        34.94400
O          13.90100        21.83500        36.04200
C          13.98900        23.19100        36.50200
O          14.44400        23.39400        37.84800
C          13.54400        23.09700        38.92500
C          13.53900        21.62000        39.28600
O          12.56500        20.99400        38.43900
H          12.60200        20.01800        38.65200
C          13.24100        21.33200        40.74800
O          14.10500        20.21000        40.97900
H          13.96800        19.48700        40.30200
C          13.75600        25.38100        39.60200
O          14.21700        26.39900        40.50200
H          14.03400        27.26300        40.03400
C          13.90300        23.96100        40.12300
O          13.12100        23.59000        41.26800
C          13.72600        22.37700        41.74000
O          13.15700        22.25500        43.05200
C           8.15900        18.60200        41.16000
C           7.53300        17.28000        41.57500
O           6.71200        16.70100        40.55000
H           7.17400        16.73900        39.66300
C           6.20700        19.77000         1.06800
O           5.49000        18.55700         1.33800
H           4.50800        18.74300         1.32400
C           8.73000        23.17500         0.23700
O           9.46400        24.06600         1.08900
H           9.44700        24.95900         0.64000
C           8.30300        21.76500         0.61200
O           7.47100        21.76800         1.78200
C           7.12100        20.41300         2.09800
O           6.46100        20.39500         3.37300
C           7.33700        20.25700         4.50100