# freq=raman b3lyp/6-31+g(2d,p) geom=connectivity

500 9414/9414.com

0 1
C           9.94300         8.17900         2.85800
C           9.35900         9.50500         3.31700
O           9.99200        10.55000         2.56400
H          10.06700        10.43000         1.57400
C           9.65200         9.83700         4.77100
O           9.01900        11.03300         5.24600
H           9.17500        11.79800         4.62100
C          10.04200         5.78500         3.31900
O           9.81000         4.71300         4.24500
H          10.06200         3.81200         3.89200
C           9.53300         7.11100         3.86000
O          10.06700         7.45500         5.14700
C           9.38700         8.61800         5.64000
O          10.15900         8.81500         6.83300
C           9.56700         8.29300         8.03200
C          10.04700         6.87000         8.26500
O           9.94300         5.80200         7.31200
H           9.92900         6.21500         6.40100
C           9.46700         6.31600         9.55600
O           9.91200         4.98600         9.86100
H          10.18400         4.48900         9.03700
C           9.54500        10.45400         9.16700
O           9.26700        11.30500        10.28900
H           9.13300        12.25700        10.01400
C           9.95300         8.99800         9.32200
O           9.38500         8.48900        10.53700
C           9.85400         7.15200        10.76500
O           9.04800         6.84200        11.91100
C           9.59000         7.26800        13.16900
C           8.93300         8.50100        13.76800
O           9.08100         9.55600        12.80700
H           9.44200         9.13700        11.97300
C           9.38500         8.95600        15.14600
O           8.68800        10.14400        15.54700
H           8.99500        11.02500        15.18600
C          10.05700         4.87900        13.87300
O           9.99700         3.68000        14.66000
H           9.60200         2.81800        14.34100
C           9.44000         6.21500        14.25400
O          10.10400         6.60400        15.46500
C           9.34400         7.69800        15.99800
O           9.93400         8.16300        17.22100
C           9.31000         7.60100        18.38400
C           9.90200         6.23500        18.69300
O           9.38400         5.14700        17.91400
H           9.90400         5.10000        17.06100
C           9.44600         5.77400        20.06800
O          10.24500         4.59200        20.21900
H          10.19300         4.22100        19.29200
C           8.99600         9.84200        19.43700
O           9.49300        10.85400        20.32400
H           8.90500        11.66200        20.35200
C           9.69400         8.49600        19.55000
O           9.22500         8.04600        20.82900
C           9.74300         6.75700        21.18900
O           8.97100         6.40000        22.34500
C           9.73700         6.50400        23.55400
C           9.43600         7.84600        24.20100
O           9.68900         8.89900        23.26000
H           9.44300         8.59400        22.34000
C          10.01800         8.12200        25.57800
O           9.42500         9.29500        26.15200
H           9.98100        10.09100        25.91200
C           9.35000         3.91700        24.27000
O           8.92400         2.89100        25.17800
H           9.05500         2.01100        24.72200
C           9.34400         5.41300        24.53700
O          10.00200         5.76000        25.76500
C           9.54500         6.95000        26.42300
O          10.20300         6.95000        27.69800
C           9.51700         6.63200        28.91800
C           9.34700         5.15400        29.22800
O           8.63400         4.56600        28.13000
H           9.11600         4.56400        27.25400
C           8.63100         4.90200        30.54400
O           8.56200         3.50200        30.85300
H           7.82800         3.21700        30.23700
C          10.34700         8.70700        29.81800
O          10.78800         9.67200        30.78400
H          10.39200        10.57200        30.59900
C          10.14300         7.24000        30.16200
O           9.49900         7.05700        31.43200
C           9.40800         5.63800        31.62400
O           8.99900         5.33200        32.96500
C           9.82800         5.75700        34.05700
C           9.29700         7.09800        34.53500
O           9.77700         8.22000        33.78000
H           9.89700         7.89000        32.84300
C           9.79700         7.40400        35.93700
O           9.34800         8.63800        36.51600
H           9.55100         9.38800        35.88600
C          10.11700         3.36900        34.82500
O           9.91100         2.36000        35.82400
H          10.21200         1.52100        35.37000
C           9.57800         4.74800        35.16700
O          10.24000         5.00900        36.41300
C           9.69300         6.23900        36.90800
O          10.61500         6.50500        37.97600
C          10.44200         5.93100        39.28000
C          11.04800         4.58800        39.65600
O          10.55300         3.58300        38.75900
H          10.47800         3.92400        37.82200
C          10.57600         4.07100        41.00500
O          11.10500         2.74500        41.14900
H          10.61900         2.22500        40.44600
C          10.49800         8.21000        40.11300
O          10.90100         9.24100        41.02700
H          10.26200         9.97400        40.79500
C          10.41800         9.88200        -1.25500
O           9.90600         9.32200        -0.03700
C          10.36500         8.06900         0.49100
O           9.42900         7.85800         1.55800
C           4.82200         4.21900         0.79100
C           4.92300         2.75100         1.17200
O           4.53900         1.77500         0.19200
H           4.64000         2.20200        -0.70700
C           4.27800         2.36300         2.49200
O           4.89100         1.10000         2.79100
H           5.07700         0.84200         1.84200
C           5.61600         6.50900         1.50200
O           6.09400         7.34700         2.56400
H           5.95400         8.27500         2.21800
C           5.41700         5.05800         1.91000
O           4.65500         4.75600         3.08800
C           4.70600         3.39100         3.52600
O           3.99700         3.35800         4.77300
C           4.77000         3.43700         5.97900
C           4.58700         4.83200         6.55500
O           4.85400         5.92700         5.66800
H           4.72100         5.68300         4.70700
C           5.04500         4.93600         8.00100
O           4.53200         6.07800         8.70200
H           4.76700         6.96100         8.29500
C           4.98900         1.03600         6.57000
O           4.80000        -0.05800         7.47900
H           4.80700        -0.83600         6.85000
C           4.56000         2.40400         7.07500
O           5.21400         2.59000         8.33900
C           4.67500         3.78500         8.92200
O           5.62400         3.73700         9.99600
C           5.03700         3.34600        11.24600
C           5.37000         1.92000        11.65500
O           4.51600         1.05500        10.89200
H           4.75600         1.05700         9.92100
C           5.10200         1.57900        13.11200
O           5.99600         0.47800        13.32800
H           5.64400        -0.24400        12.73300
C           4.94900         5.74900        12.33000
O           5.35200         6.67100        13.35300
H           5.17400         7.61800        13.08500
C           5.50800         4.33600        12.29900
O           5.02200         3.92100        13.58400
C           5.51800         2.67100        14.08400
O           4.70100         2.43500        15.24000
C           5.25200         2.75400        16.52600
C           5.01400         4.17000        17.02400
O           5.11600         5.19300        16.02300
H           5.10400         4.81000        15.10000
C           5.61600         4.51600        18.37600
O           5.07300         5.76800        18.82200
H           5.35200         6.47400        18.17100
C           9.11700        33.50000        17.21000
O           8.74200        32.22900        17.76100
H           8.74200        31.52300        17.05300
C           4.64800         1.79200        17.53700
O           5.22400         2.18700        18.79100
C           5.00700         3.50000        19.32800
O           5.98800         3.54500        20.37400
C           5.52500         2.81500        21.51900
C           6.08700         1.43700        21.83000
O           5.83100         0.46000        20.81100
H           5.74600         0.93700        19.93600
C           9.50800        34.17400        23.10400
O           9.90400        32.84500        23.47300
H          10.00000        32.25500        22.67200
C           4.51700         4.90000        22.67300
O           4.59600         5.81000        23.78000
H           4.09300         6.65000        23.57700
C           5.48600         3.73000        22.73300
O           4.91400         3.12400        23.90100
C           5.65500         1.95200        24.27100
O           4.85000         1.57400        25.39700
C           5.18200         1.75500        26.78100
C           4.46400         2.98200        27.32000
O           4.76900         4.14300        26.53300
H           4.42700         3.95100        25.61300
C           5.04900         3.37900        28.66500
O           4.23000         4.42400        29.21100
H           4.47700         5.37200        29.01000
C           9.14800        32.38200        27.25700
O           8.87900        31.38800        28.25600
H           8.70400        30.52900        27.77400
C           4.75100         0.64800        27.73000
O           5.43300         0.96200        28.95300
C           4.86300         2.14500        29.53300
O           5.57600         2.49800        30.72700
C           4.83100         2.13000        31.89700
C           5.14400         0.68100        32.23300
O           4.82600        -0.40200        31.34800
H           4.95200        -0.16700        30.38400
C           8.78000        33.45400        33.61600
O           9.46100        32.21000        33.83800
H           9.17900        31.73600        33.00400
C           4.89400         4.47000        32.86300
O           5.71000         5.18600        33.80200
H           5.41700         6.14000        33.86000
C           5.24800         3.00600        33.06800
O           4.81200         2.61300        34.37700
C           5.19700         1.25900        34.65700
O           4.58000         1.11300        35.94400
C           5.47000         1.12200        37.06900
C           5.14500         2.43200        37.76900
O           5.42000         3.50700        36.85900
H           5.15100         3.27800        35.92300
C           5.78000         2.63700        39.13500
O           5.43700         3.94200        39.62400
H           5.31500         4.54500        38.83600
C           9.86700        31.96400        37.63000
O           9.43700        30.77600        38.31100
H           9.16500        30.08200        37.64500
C           5.10300         0.09900        38.13200
O           5.49300         0.21500        39.50800
C           5.27900         1.52800        40.04600
O           5.99900         1.35300        41.27500
C          10.70400        16.29700         1.92300
C          10.76600        17.64800         2.61600
O          11.68400        18.43300         1.84000
H          11.17800        18.52500         0.98300
C          11.32600        17.72400         4.02700
O          11.03100        18.91800         4.76600
H          11.49800        19.69800         4.34800
C          10.21800        13.86000         2.42500
O           9.36600        12.98800         3.18100
H           9.37800        12.10100         2.71900
C          10.21200        15.28800         2.94700
O          10.96600        15.30900         4.16800
C          10.74600        16.56700         4.82300
O          11.34300        16.47700         6.12500
C          10.38500        16.45800         7.19200
C           9.57300        15.20100         7.46100
O           8.59200        15.09400         6.42000
H           9.03000        15.05900         5.52200
C           9.02600        15.11900         8.87700
O           8.61500        13.79700         9.25500
H           7.82100        13.57300         8.68900
C          11.99300        18.07100         8.10000
O          12.77400        18.63700         9.16200
H          13.69800        18.27700         9.29200
C          11.35400        16.71100         8.33500
O          10.59600        16.74700         9.55300
C          10.13500        15.42500         9.87000
O           9.61400        15.37800        11.20600
C          10.54300        15.54700        12.28700
C          10.48600        16.90500        12.96800
O          11.39600        17.70400        12.19800
H          11.27600        17.87800        11.22100
C          10.91900        16.93100        14.42400
O          10.23600        18.08900        14.92800
H          10.54900        18.83100        14.33400
C          10.32200        12.95100        12.78700
O           9.70300        12.02700        13.69400
H           9.48600        11.19000        13.19200
C          10.09800        14.40100        13.18200
O          10.77600        14.50200        14.44300
C          10.33300        15.70100        15.09600
O          10.94600        15.51800        16.38100
C          10.24500        15.87000        17.58300
C           9.30400        14.75500        18.00700
O           8.02400        15.07800        17.44500
H           8.02800        15.16600        16.44900
C           9.01200        14.61400        19.49200
O           8.18100        13.51300        19.88700
H           7.45400        13.44000        19.20400
C          11.49200        17.53700        18.76300
O          10.72400        18.33500        19.67600
H          11.30700        19.12600        19.86200
C          11.28000        16.03400        18.68300
O          11.28300        15.48400        20.00800
C          10.28700        14.49600        20.31100
O           9.91200        14.87400        21.64400
C          10.69100        14.77500        22.84500
C          10.54100        16.15300        23.46800
O          10.93000        17.16700        22.53000
H          10.56200        16.88200        21.64500
C          11.22600        16.33200        24.81300
O          10.88000        17.46100        25.62900
H          10.94700        18.36000        25.19600
C          10.27700        12.36300        23.28400
O          10.04100        11.32400        24.24500
H           9.91300        10.44500        23.78500
C          10.11100        13.77200        23.82900
O          11.02900        13.86800        24.92800
C          10.80300        15.11000        25.61100
O          11.47100        14.89100        26.86200
C          10.61200        15.21000        27.96700
C          10.06100        13.85900        28.39200
O           9.09500        13.17900        27.57800
H           9.47300        12.54200        26.90600
C           9.68700        13.70900        29.85800
O           9.44900        12.35900        30.28100
H           8.71000        12.00500        29.70800
C          11.85400        17.23200        28.73000
O          12.92300        18.00900        29.28800
H          13.76000        17.46300        29.24000
C          11.54200        15.77500        29.02800
O          11.04200        15.70800        30.37200
C          10.66100        14.39300        30.80400
O          10.16200        14.48400        32.14600
C          11.13700        14.29700        33.18200
C          11.08200        15.65100        33.87100
O          12.11200        16.36900        33.17600
H          11.98800        16.43100        32.18500
C          11.42300        15.72800        35.35000
O          10.96500        16.94800        35.95200
H          11.32900        17.81600        35.61400
C          10.64200        11.82600        33.53600
O           9.73500        10.97100        34.24800
H           9.62800        10.06700        33.83600
C          10.57700        13.23100        34.11000
O          11.11100        13.29500        35.44000
C          10.86400        14.53800        36.11400
O          11.52800        14.28100        37.36000
C          10.81000        14.18500        38.59800
C          10.37500        12.77000        38.94000
O           9.51100        12.13200        37.98900
H           9.90800        12.27100        37.08200
C           9.69200        12.67400        40.29500
O           9.39000        11.28200        40.46500
H           8.95300        11.00200        39.61000
C          11.95100        16.27100        39.41900
O          12.54800        16.88800        40.56900
H          13.46400        16.51400        40.71800
C          11.57800        14.83300        39.73900
O          10.80000        14.65900        40.93100
C          10.76700        13.25000        41.20300
O          10.25200        13.30700        42.54100
C           5.18700        12.54100         0.15800
C           5.47800         7.99200        42.28900
O           4.61500         7.27300        41.39500
H           4.91500         7.54500        40.48100
C           4.51600        10.91000         2.00500
O           4.34500         9.51600         2.29900
H           3.78100         9.06000         1.61000
C           5.84200        14.75200         0.83600
O           6.36900        15.87400         1.55900
H           5.98100        16.77200         1.35200
C           6.04300        13.28300         1.17200
O           5.49800        13.12400         2.49000
C           5.37300        11.76200         2.92600
O           4.65800        11.64800         4.16500
C           5.29600        11.91500         5.42200
C           4.97200        13.30300         5.95000
O           5.64500        14.36300         5.25600
H           5.32800        14.17700         4.32600
C           5.39300        13.63300         7.37300
O           4.99200        14.91500         7.87700
H           5.29800        15.71300         7.35800
C           4.99000         9.59400         5.88700
O           4.85100         8.56300         6.87600
H           4.79000         7.73700         6.31600
C           4.69800        10.97300         6.45400
O           5.16600        11.17700         7.79500
C           5.00800        12.50500         8.31600
O           5.98500        12.33500         9.35400
C           5.49700        11.93500        10.64200
C           5.48700        10.48200        11.09000
O           5.00100         9.69200         9.99500
H           5.48800         9.99900         9.17700
C           4.55000        10.35500        12.27900
O           4.22100         9.01800        12.68400
H           3.50400         8.66900        12.08100
C           5.64400        14.20700        11.56300
O           6.31800        15.14400        12.41600
H           6.05900        16.10600        12.33700
C           5.87400        12.73800        11.87600
O           5.04200        12.47500        13.01600
C           5.27400        11.10700        13.38400
O           4.43800        11.05100        14.54900
C           5.09200        11.08000        15.82500
C           4.77400        12.41800        16.47100
O           5.15000        13.59100        15.73500
H           4.93100        13.33400        14.79300
C           5.54000        12.65700        17.76300
O           5.26600        13.89500        18.43500
H           5.56100        14.67100        17.87700
C           4.65200         8.58300        16.41100
O           5.92600         7.94500        16.24100
H           5.80900         7.02400        15.86900
C           4.69900        10.03500        16.85700
O           5.38800        10.16900        18.10900
C           5.17800        11.48000        18.65300
O           6.01800        11.36100        19.81000
C           5.28600        11.21800        21.03700
C           5.02900         9.78700        21.48000
O           4.60700         8.91000        20.42500
H           5.09800         9.23500        19.61700
C           4.27100         9.63800        22.78800
O           3.79500         8.33000        23.13800
H           3.17800         8.27800        22.35200
C           5.90900        13.36100        22.04800
O           6.62200        14.14700        23.01400
H           6.28200        15.05900        22.78300
C           5.93100        11.85500        22.25700
O           5.18400        11.75400        23.47800
C           5.12400        10.36100        23.81800
O           4.31800        10.31600        25.00400
C           5.20600        10.52300        26.11200
C           4.94200        11.77400        26.93500
O           5.00100        12.96200        26.13300
H           4.78800        12.63100        25.21400
C           5.90900        12.02500        28.08100
O           5.82000        13.38500        28.53300
H           6.03300        14.11300        27.88200
C           5.09800         7.95700        26.67300
O           4.62800         6.86300        27.47400
H           4.25300         6.20600        26.82000
C           5.07400         9.40500        27.13400
O           5.72100         9.57800        28.40300
C           5.66900        10.86600        29.03400
O           6.45700        10.79000        30.23100
C           5.73500        10.43500        31.41900
C           5.48600         8.99000        31.81800
O           4.91600         8.25800        30.72300
H           5.46300         8.50700        29.92400
C           4.51400         8.93400        32.98500
O           4.14900         7.57500        33.26300
H           3.54300         7.29100        32.51900
C           6.22900        12.75000        32.30500
O           6.48700        13.68600        33.36100
H           6.25100        14.62200        33.10000
C           6.20100        11.26000        32.60700
O           5.35700        10.97900        33.73300
C           5.36600         9.58200        34.06400
O           4.84700         9.28700        35.36900
C           5.52600         9.42600        36.62600
C           5.22900        10.76900        37.27300
O           5.83800        11.81100        36.49700
H           5.19100        11.60800        35.76200
C           5.89200        10.93500        38.63100
O           5.66000        12.25300        39.14800
H           6.23200        12.87500        38.61400
C           5.04200         7.02600        36.95800
O           4.87100         5.86400        37.78300
H           5.27200         5.12700        37.24000
C           4.90700         8.40900        37.57200
O           5.33800         8.60500        38.92700
C           5.33900         9.88400        39.57900
O           6.28800         9.49100        40.58100
C          13.51100        24.20100         2.24300
C          14.13100        25.43100         2.88500
O          15.22900        25.91800         2.10000
H          14.97000        26.03900         1.14100
C          14.63000        25.39000         4.32000
O          15.00000        26.71100         4.74100
H          15.90800        26.82200         4.33600
C          12.08800        22.19700         2.99200
O          11.39300        21.56200         4.07500
H          10.47500        21.95300         4.13800
C          12.58800        23.60100         3.29100
O          13.23300        23.45300         4.56400
C          13.58200        24.70200         5.17900
O          13.99700        24.60200         6.54900
C          13.07800        24.49000         7.64600
C          12.84400        23.11100         8.24100
O          12.49000        22.29200         7.11700
H          13.11100        22.51200         6.36500
C          11.94100        22.87100         9.44000
O          11.52200        21.52300         9.70100
H          11.43200        20.98200         8.86600
C          13.50000        26.72900         8.29100
O          13.62500        27.74100         9.30100
H          13.39400        28.63200         8.91100
C          13.57500        25.30800         8.82600
O          12.88000        25.06400        10.05800
C          12.85500        23.66200        10.36200
O          12.11500        23.64800        11.59100
C          12.84600        23.66600        12.82600
C          13.06500        25.05100        13.41100
O          13.81800        25.85000        12.48700
H          13.41100        25.87500        11.57400
C          13.88500        24.83700        14.67200
O          14.36500        26.02100        15.32700
H          15.09500        26.45300        14.79800
C          11.78100        21.38500        13.57600
O          11.14400        20.56500        14.56700
H          10.16200        20.75600        14.58000
C          12.19500        22.81100        13.90000
O          13.05000        22.68300        15.04600
C          13.12200        23.97600        15.66500
O          13.84800        23.73900        16.88100
C          13.16200        23.71800        18.14100
C          13.04700        22.26300        18.56400
O          12.96600        21.20100        17.60300
H          13.16000        21.58300        16.69900
C          12.07900        22.20800        19.73500
O          11.83800        20.81100        19.96100
H          11.22900        20.57500        19.20400
C          13.58400        26.05400        18.93300
O          14.04700        26.98300        19.92300
H          14.50800        27.76500        19.50300
C          13.67200        24.57800        19.28600
O          12.95200        24.35800        20.50700
C          12.68500        22.99900        20.88300
O          11.86300        23.13900        22.05100
C          12.66000        22.94900        23.22900
C          13.01700        24.30900        23.80600
O          13.94200        24.96700        22.92800
H          13.50000        24.84700        22.03900
C          13.70300        24.18000        25.15600
O          14.33100        25.35400        25.69200
H          15.09100        25.63500        25.10700
C          11.60300        20.83500        23.70000
O          10.95000        19.79500        24.44200
H          10.05400        20.18500        24.65500
C          11.73000        22.26000        24.21400
O          12.38500        22.15000        25.48600
C          12.72300        23.42900        26.04300
O          13.45000        23.03900        27.21700
C          12.69900        22.96500        28.43700
C          12.85800        21.51100        28.85200
O          12.10700        20.64800        27.98600
H          12.50100        20.75400        27.07300
C          12.31100        21.33500        30.26000
O          12.79200        20.11000        30.83200
H          12.82100        19.38900        30.13900
C          13.22000        25.30900        28.98200
O          13.82700        26.30700        29.81600
H          13.71900        27.23700        29.46500
C          13.41000        23.86900        29.43000
O          12.79800        23.69200        30.71500
C          13.00000        22.34400        31.16400
O          12.53100        22.48900        32.51300
C          13.37300        22.05600        33.59100
C          13.71700        23.43300        34.13500
O          14.78400        24.09000        33.43600
H          14.50700        24.04200        32.47600
C          14.09200        23.47400        35.60800
O          13.90700        24.81000        36.09700
H          13.93800        25.44500        35.32500
C          12.28200        19.82600        34.07900
O          11.36700        19.03900        34.85500
H          10.63200        19.65400        35.14100
C          12.55900        21.23500        34.57800
O          13.21400        21.26900        35.85500
C          13.16200        22.58700        36.42000
O          13.87300        22.22100        37.61100
C          13.04600        22.31200        38.78000
C          13.01800        20.89000        39.31600
O          12.08900        20.10600        38.55300
H          12.47100        19.78100        37.68800
C          12.82600        20.51300        40.77700
O          13.37800        19.29100        41.28700
H          12.89200        18.58700        40.77100
C          13.73100        24.61200        39.75800
O          14.31700        25.32200        38.65700
H          14.01000        25.03000        37.75100
C          13.75000        23.09700        39.87500
O          12.97300        22.92200        41.06900
C          13.40400        21.65800        41.59300
O          13.06100        21.62500        42.98600
C           7.75700        17.70900        41.23900
C           7.21500        16.32700        41.57000
O           6.31500        15.79400        40.58700
H           6.67500        15.76900        39.65500
C           5.99800        19.53300         1.17800
O           5.18300        18.38500         1.45600
H           4.21000        18.61000         1.41500
C           8.27600        22.84100         0.52100
O           8.86000        23.78200         1.43400
H           8.78400        24.76100         1.24700
C           8.11200        21.33900         0.68800
O           7.42400        21.24900         1.94400
C           7.01700        19.90500         2.24300
O           6.43700        19.92700         3.55500
C           7.34800        19.76300         4.65200