# freq=raman b3lyp/6-31+g(d,p) geom=connectivity

310 5000.com

0 1
 O                  7.76000000    7.37200000   22.67000000
 C                  8.15700000    7.67400000   24.01600000
 C                  7.65000000    8.97600000   24.61500000
 O                  7.86000000   10.05100000   23.68800000
 H                  7.45400000    9.78700000   22.81300000
 C                  8.28700000    9.39600000   25.93000000
 O                  7.76600000   10.62200000   26.46100000
 H                  8.08500000   10.86400000   27.37800000
 C                  8.52300000    5.21300000   24.73300000
 O                  8.19500000    4.54900000   23.50400000
 H                  8.16000000    3.56000000   23.65200000
 C                  7.98000000    6.59300000   25.06900000
 O                  8.62000000    7.07300000   26.26000000
 C                  8.06000000    8.23600000   26.88600000
 O                  8.93900000    8.31900000   28.01700000
 C                  8.21100000    8.12100000   29.23800000
 C                  8.84000000    6.82400000   29.72000000
 O                  8.45800000    5.75600000   28.84100000
 H                  8.52200000    6.17800000   27.93700000
 C                  8.37500000    6.42700000   31.11200000
 O                  9.07800000    5.31400000   31.68200000
 H                  8.57800000    5.14500000   32.53200000
 C                  8.02900000   10.61700000   29.99900000
 O                  8.47200000   11.37600000   28.86500000
 H                  8.37000000   12.36400000   28.98000000
 C                  8.49700000    9.19700000   30.27200000
 O                  7.98500000    8.81700000   31.55800000
 C                  8.53400000    7.59500000   32.07200000
 O                  7.59100000    7.34800000   33.12600000
 H                  8.54129133    7.24987482   22.12569374
 H                  8.22075463    4.56119081   25.52590133
 H                  9.59000115    5.28401850   24.76994490
 H                  6.93350736    6.49554240   25.26963690
 H                  9.21645548    7.80694696   23.94686837
 H                  6.59676057    8.87657970   24.77531941
 H                  9.33970755    9.51177633   25.77734791
 H                  7.03408865    8.10592498   27.16074786
 H                  8.06329000    7.15730322   33.93974253
 H                  8.27841017   11.19181411   30.86634267
 H                  6.96114539   10.58001636   29.94226613
 H                  9.56165941    9.24421903   30.36776378
 H                  7.16214936    8.00692125   29.05967900
 H                  9.90538477    6.92320559   29.71631948
 H                  7.33646300    6.17511537   31.05819443
 H                  9.53409490    7.70782052   32.43529290

 1 2 1.0 30 1.0
 2 3 1.0 12 1.0 34 1.0
 3 4 1.0 6 1.0 35 1.0
 4 5 1.0
 5
 6 7 1.0 14 1.0 36 1.0
 7 8 1.0
 8
 9 10 1.0 12 1.0 31 1.0 32 1.0
 10 11 1.0
 11
 12 13 1.0 33 1.0
 13 14 1.0
 14 15 1.0 37 1.0
 15 16 1.0
 16 17 1.0 26 1.0 42 1.0
 17 18 1.0 20 1.0 43 1.0
 18 19 1.0
 19
 20 21 1.0 28 1.0 44 1.0
 21 22 1.0
 22
 23 24 1.0 26 1.0 39 1.0 40 1.0
 24 25 1.0
 25
 26 27 1.0 41 1.0
 27 28 1.0
 28 29 1.0 45 1.0
 29 38 1.0
 30
 31
 32
 33
 34
 35
 36
 37
 38
 39
 40
 41
 42
 43
 44
 45

