# freq=raman b3lyp/6-31+g(d,p) geom=connectivity

400 8000.com

0 1
O           9.50500         7.94300        22.68100
C          10.23700         8.03700        23.91100
C          10.27800         9.46600        24.42700
O          10.96000        10.25400        23.44100
H          10.52900        10.17200        22.54200
C          10.95500         9.58800        25.78300
O          10.44800        10.88100        26.14300
H          10.76200        11.13500        27.05800
C           9.60200         5.64000        24.79600
O           9.13300         5.07100        23.56400
H           8.93800         4.09900        23.69700
C           9.68500         7.14300        25.01000
O          10.39200         7.36300        26.23900
C          10.34400         8.67000        26.82900
O          11.22900         8.57600        27.95500
C          10.61100         8.33300        29.22700
C          10.57500         6.84900        29.55100
O           9.75500         6.14400        28.60900
H          10.06100         6.36700        27.68400
C          10.01400         6.59900        30.94200
O          10.54100         5.36000        31.43700
H          10.34600         5.37500        32.41700
C          11.82400        10.49200        30.02900
O          10.95600        11.50100        29.49300
H          11.37700        12.36300        29.20800
C          11.25100         9.12300        30.35700
O          10.46300         8.95500        31.54400
C          10.52600         7.58800        31.97600
O           9.53800         7.71900        33.00900

