# freq=raman b3lyp/6-31+g(d,p) geom=connectivity

350 5000.com

0 1
O           7.64800         7.83700        22.65600
C           8.20500         8.09100        23.95400
C           7.62700         9.35800        24.56400
O           7.69800        10.40600        23.58700
H           7.90800        10.05200        22.67600
C           8.31100         9.79500        25.84900
O           7.81400        11.01000        26.43000
H           8.03800        11.09100        27.40100
C           8.49700         5.71800        24.54700
O           7.83900         4.93100        23.54400
H           7.65100         4.00400        23.86900
C           7.89600         7.03800        25.00500
O           8.51400         7.39800        26.24900
C           8.08700         8.64500        26.81700
O           8.90600         8.86300        27.97400
C           8.21800         8.48800        29.17600
C           8.78300         7.19000        29.72900
O           8.44300         6.10600        28.85200
H           8.91600         6.25900        27.98500
C           8.33300         6.78200        31.12200
O           8.92400         5.52900        31.49600
H           8.58700         5.31900        32.41400
C           8.01300        10.88500        30.13500
O           8.42100        11.60000        28.96000
H           8.12200        12.54500        29.09300
C           8.61700         9.49400        30.24300
O           8.11400         9.18100        31.55000
C           8.73400         7.96400        31.99000
O           8.10500         7.76500        33.26400

