# freq=raman b3lyp/6-31+g(2d,p) geom=connectivity

280 6180/6180.com

0 1
C           7.95000         7.64000         2.75000
C           7.42200         8.95300         3.30600
O           7.74000         9.94600         2.32100
H           7.64200         9.47600         1.44300
C           7.92500         9.34200         4.68700
O           7.46600        10.62500         5.13700
H           7.64600        10.73300         6.11500
C           8.07500         5.26200         3.49900
O           7.84800         4.61100         2.24100
H           7.93400         3.61700         2.30500
C           7.50500         6.63800         3.80300
O           8.03000         6.96500         5.09800
C           7.55700         8.21000         5.63200
O           8.24300         8.67500         6.80400
C           8.02400         8.21700         8.14600
C           8.73300         6.93300         8.54800
O           8.83900         5.84800         7.61600
H           8.73800         6.23000         6.69800
C           8.29400         6.47300         9.92800
O           9.03800         5.38500        10.49400
H           8.82400         5.23600        11.45900
C           7.73100        10.61400         9.04300
O           8.01300        11.38200         7.86400
H           7.89000        12.36700         7.98300
C           8.36000         9.24200         9.21700
O           7.95400         8.85400        10.53800
C           8.48700         7.58500        10.94600
O           7.70000         7.33900        12.12100
C           8.28200         7.81600        13.34400
C           7.51400         9.01600        13.87300
O           7.46000        10.01100        12.84000
H           7.52900         9.43600        12.02500
C           7.99000         9.44200        15.25200
O           7.26700        10.55700        15.79200
H           7.72400        10.85200        16.63100
C           9.03200         5.43700        13.96700
O           8.37000         4.76500        12.88600
H           8.41600         3.77700        13.03000
C           8.30400         6.70600        14.38200
O           8.79000         7.18000        15.64600
C           8.02200         8.25600        16.20300
O           8.83500         8.60100        17.33400
C           8.34000         8.24000        18.63200
C           8.94500         6.92600        19.09800
O           8.66100         5.86300        18.17700
H           9.32400         6.01200        17.44400
C           8.36000         6.51800        20.44000
O           8.87500         5.33100        21.05900
H           8.49300         5.26600        21.98100
C           8.16100        10.63200        19.47700
O           8.43600        11.38200        18.28500
H           8.18900        12.34900        18.33000
C           8.70000         9.23200        19.72600
O           8.09900         8.92700        20.99300
C           8.56300         7.64400        21.44000
O           7.72200         7.43600        22.58400
C           8.29500         7.81700        23.84300
C           7.67200         9.11100        24.34200
O           7.86500        10.11600        23.33600
H           8.02500         9.67900        22.45100
C           8.10400         9.66100        25.69200
O           7.42900        10.82700        26.18600
H           7.88300        11.04000        27.05100
C           8.49600         5.43000        24.73200
O           8.30000         4.68400        23.52200
H           8.36200         3.70100        23.69600
C           7.94800         6.83200        24.94700
O           8.42800         7.17900        26.25400
C           7.97100         8.48200        26.64200
O           8.87500         8.73500        27.72800
C           8.40300         8.35100        29.02700
C           8.79100         6.96700        29.52300
O           8.36800         5.92200        28.63500
H           8.58900         6.31200        27.74100
C           8.27800         6.66600        30.92100
O           8.90500         5.42600        31.27800
H           8.46500         5.08200        32.10800
C           8.14400        10.76400        29.70300
O           8.48100        11.49400        28.51500
H           8.09500        12.41000        28.62400
C           8.71700         9.40600        30.07500
O           8.27100         9.02600        31.38500
C           8.70700         7.75500        31.89100
O           7.84600         7.50000        33.00900
C           8.34200         7.84100        34.31200
C           7.82500         9.17500        34.82400
O           7.84700        10.28800        33.91900
H           7.64400         9.90000        33.02000
C           8.27500         9.58400        36.21700
O           7.44000        10.64400        36.70500
H           7.61300        10.91300        37.65300
C           8.44900         5.38300        34.97900
O           7.92500         4.75800        33.79800
H           8.19300         3.80300        33.92700
C           7.97600         6.78200        35.33900
O           8.50900         7.18100        36.61000
C           7.97400         8.40700        37.13000
O           8.56800         8.67100        38.40900
C           7.92500         8.28100        39.63200
C           8.67400         7.03700        40.08000
O           8.54400         5.94900        39.15300
H           8.64600         6.41000        38.27200
C           8.33800         6.55100        -0.58900
O           8.88700         5.33900        -0.05300
H           8.35700         5.06500         0.75000
C           7.65200        10.75000        40.38500
O           8.01400        11.47700        39.20200
H           7.83500        12.44000        39.40600
C           8.21900         9.36300        -1.41000
O           7.70200         8.87900        -0.16200
C           8.35800         7.72300         0.37900
O           7.42900         7.42600         1.43100
C           4.21900         4.10000         0.26500
C           4.49300         2.71700        42.89700
O           4.36100         1.67100        41.92300
H           4.49300         2.07900        41.02000
C           3.71400         2.43500         2.10000
O           4.02800         1.13900         2.63000
H           3.78300         1.05100         3.59600
C           4.20700         6.52300         1.03000
O           4.59400         7.27200        -0.13000
H           4.33700         8.20500         0.12400
C           4.60100         5.09000         1.35300
O           3.93400         4.79400         2.58800
C           4.17100         3.47800         3.10800
O           3.35700         3.44600         4.28900
C           4.02400         3.59000         5.55100
C           3.76800         4.99700         6.06600
O           4.27400         6.01700         5.19300
H           3.92600         5.89900         4.26200
C           4.32300         5.23600         7.46100
O           4.00000         6.52900         7.99400
H           4.28500         6.61200         8.94900
C           4.11200         1.25500         6.42400
O           3.70800         0.53900         5.24800
H           3.95400        -0.41800         5.40100
C           3.51100         2.63800         6.61900
O           3.90400         2.84200         7.98400
C           3.80300         4.19800         8.44200
O           4.72400         4.14500         9.54100
C           4.17500         3.93400        10.85100
C           4.38700         2.53900        11.41600
O           3.98700         1.62100        10.38900
H           3.94300         2.11400         9.51900
C           3.74000         2.27400        12.76500
O           4.09000         0.94900        13.19000
H           3.71900         0.89300        14.11700
C           3.95100         6.24000        11.59200
O           4.39100         7.15400        10.57700
H           4.01300         8.01500        10.92000
C           4.64300         4.92400        11.90600
O           3.96900         4.68200        13.14900
C           4.24400         3.37800        13.68000
O           3.47600         3.44100        14.89000
C           4.23400         3.59800        16.09900
C           3.99400         5.01500        16.59300
O           4.00400         6.15300        15.71800
H           3.94700         5.73800        14.81000
C           4.79200         5.34500        17.84300
O           4.78000         6.70800        18.29400
H           4.88400         6.71700        19.28800
C           4.10800         1.15600        16.94700
O           3.42400         0.56100        15.83500
H           3.51900        -0.43100        15.91400
C           3.90300         2.63600        17.22800
O           4.51500         3.04100        18.46100
C           4.20400         4.38300        18.86200
O           4.96900         4.46900        20.07300
C           4.23200         4.19200        21.27300
C           4.46800         2.77600        21.77300
O           4.33600         1.72100        20.81000
H           4.51100         2.02400        19.87300
C           3.74800         2.54500        23.09200
O           3.72300         1.24800        23.70500
H           3.37300         1.25500        24.64200
C           4.35300         6.66400        22.18400
O           4.56500         7.40300        20.97200
H           4.40200         8.38300        21.08500
C           4.64400         5.18200        22.35100
O           4.07400         4.84700        23.62400
C           4.30800         3.51900        24.11600
O           3.56600         3.49300        25.34400
C           4.15500         3.77700        26.62100
C           3.84400         5.20300        27.04600
O           4.37900         6.15000        26.11000
H           4.12400         5.81600        25.20300
C           4.47400         5.53200        28.39000
O           4.22000         6.83800        28.92600
H           4.61600         6.81400        29.84300
C           3.86700         1.39700        27.39400
O           3.18600         0.62300        26.39700
H           3.48000        -0.31400        26.58600
C           3.51800         2.85400        27.64800
O           4.08900         3.11500        28.93800
C           3.91800         4.48200        29.33900
O           4.60300         4.55900        30.59700
C           4.08000         4.26900        31.90200
C           4.38500         2.87600        32.42900
O           3.84200         1.96300        31.46400
H           3.91300         2.29300        30.52300
C           3.91100         2.54600        33.83500
O           4.38100         1.27500        34.30800
H           4.07500         1.02600        35.22700
C           4.36200         6.65900        32.81400
O           4.72300         7.17100        31.52300
H           4.75300         8.16900        31.56800
C           4.57900         5.16900        33.02000
O           3.85400         4.87400        34.22300
C           4.31000         3.64500        34.80600
O           3.37000         3.52200        35.88400
C           4.15700         3.64300        37.07800
C           4.00100         5.06300        37.59800
O           4.10900         6.13700        36.65200
H           3.86400         5.66600        35.80500
C           4.76100         5.31900        38.88800
O           4.27600         6.57500        39.38400
H           4.48400         6.73800        40.34800
C           4.30700         1.35100        37.94300
O           3.99300         0.58400        36.77200
H           4.24200        -0.37800        36.88400
C           3.69600         2.72000        38.19400
O           4.34700         2.97900        39.44600
C           4.20100         4.33200        39.90000
O           4.96000         4.21700        41.11200
C           7.72900        16.18800         2.83900
C           7.32200        17.55200         3.37300
O           7.61800        18.51200         2.34900
H           7.18600        18.17100         1.51400
C           7.99800        17.85100         4.70100
O           7.72100        19.12800         5.29500
H           7.88300        19.14400         6.28100
C           7.78000        13.72300         3.56500
O           7.37700        12.96600         2.41400
H           7.73000        12.04500         2.57700
C           7.28400        15.13300         3.83800
O           7.80700        15.43000         5.14100
C           7.56800        16.74900         5.65500
O           8.35200        16.89700         6.84700
C           7.73400        16.50800         8.08300
C           8.18000        15.12400         8.52400
O           7.69000        14.14900         7.59200
H           8.01700        14.43100         6.69000
C           7.84100        14.84700         9.98000
O           8.32300        13.57100        10.42700
H           7.92700        13.34700        11.31700
C           7.59800        18.91100         9.03500
O           7.94200        19.56200         7.80300
H           7.73900        20.54000         7.83800
C           8.13500        17.49500         9.16700
O           7.62500        17.13100        10.45800
C           8.17600        15.92200        11.00100
O           7.29900        15.79200        12.12900
C           7.88500        15.98500        13.42400
C           7.40200        17.30900        13.99400
O           7.52800        18.36600        13.03200
H           7.29300        18.06000        12.10900
C           8.04100        17.68200        15.32200
O           7.80500        19.02100        15.77900
H           8.29600        19.16300        16.63900
C           7.86800        13.55700        14.19900
O           7.50600        12.88000        12.98700
H           7.70600        11.90300        13.07100
C           7.40500        14.98100        14.45900
O           7.90500        15.39400        15.74000
C           7.55200        16.65300        16.32900
O           8.44100        16.64600        17.45600
C           7.94500        16.33800        18.76700
C           8.42800        14.97600        19.23900
O           8.03600        14.01400        18.24900
H           8.14500        14.48700        17.37500
C           7.94200        14.61700        20.63300
O           8.85200        13.65200        21.17900
H           8.61000        13.32000        22.09100
C           7.78200        18.81400        19.58600
O           8.27200        19.56900        18.46800
H           8.00400        20.51100        18.66900
C           8.25500        17.38900        19.82000
O           7.55700        17.02000        21.01900
C           8.08400        15.80500        21.57100
O           7.38500        15.57200        22.80200
C           8.08300        16.05300        23.96000
C           7.58300        17.40100        24.45400
O           7.92100        18.46200        23.54900
H           7.64000        18.13200        22.64700
C           8.14800        17.73800        25.82500
O           7.35100        18.78800        26.39100
H           7.70600        19.03700        27.29300
C           8.31700        13.57600        24.70300
O           7.78100        12.88000        23.56700
H           7.84900        11.89000        23.68900
C           7.91600        15.00100        25.04400
O           8.66300        15.37800        26.21000
C           7.99200        16.53200        26.73700
O           8.81300        16.80700        27.88100
C           8.18200        16.43500        29.11500
C           8.61800        15.08100        29.65200
O           8.25000        14.05600        28.71800
H           8.72300        14.37600        27.89700
C           8.05500        14.69400        31.00900
O           8.77300        13.51300        31.39300
H           8.49200        13.31200        32.33100
C           7.63400        18.73600        29.84700
O           8.25100        19.52600        28.82100
H           8.13300        20.49200        29.05400
C           8.41100        17.47800        30.19700
O           7.75300        17.00900        31.38300
C           8.30700        15.83100        31.98600
O           7.51400        15.61100        33.16200
C           8.07300        15.94700        34.44000
C           7.54700        17.30400        34.87900
O           7.89600        18.38700        34.00400
H           7.63400        18.01900        33.11100
C           7.90400        17.74800        36.28800
O           7.27500        18.95500        36.74200
H           7.58600        19.06600        37.68600
C           8.09000        13.50400        35.29800
O           7.88700        12.84900        34.03700
H           7.96900        11.87800        34.26000
C           7.60700        14.93400        35.47300
O           8.07500        15.35500        36.76200
C           7.63700        16.62200        37.27400
O           8.39200        16.98900        38.43800
C           7.77300        16.52300        39.64600
C           8.24600        15.14100        40.06400
O           7.74500        14.09800        39.21500
H           7.92500        14.36900        38.26900
C           7.87400        14.79700        -0.57200
O           8.63700        13.73200         0.01200
H           8.17700        13.52500         0.87600
C           7.33400        18.92300        40.43800
O           7.97700        19.71700        39.43000
H           7.83800        20.69500        39.58800
C           7.94200        17.56100        -1.32500
O           7.26500        17.17800        -0.11900
C           7.91900        15.99500         0.36300
O           7.18200        15.78300         1.57500
C           3.77000        12.25700         0.27300
C           4.22700        10.87900        42.78400
O           4.07700         9.84300        41.80300
H           4.43600        10.32300        41.00200
C           3.56300        10.56800         2.04500
O           3.99400         9.29300         2.54500
H           3.70600         9.33700         3.50100
C           3.65600        14.68400         0.99800
O           4.13600        15.41300        -0.14200
H           3.93800        16.37100         0.06700
C           4.11500        13.27700         1.34500
O           3.43100        12.94000         2.56000
C           3.92800        11.67500         3.02100
O           3.18700        11.51700         4.24000
C           3.95000        11.73600         5.43500
C           3.45900        13.06700         5.98000
O           3.55700        14.20600         5.11200
H           3.16000        13.88700         4.25200
C           3.99900        13.45000         7.34800
O           3.44700        14.70500         7.77100
H           3.60200        14.87400         8.74400
C           4.16800         9.37500         6.14400
O           3.67800         8.69300         4.98000
H           4.16300         7.81800         4.97400
C           3.59800        10.73200         6.52200
O           4.17900        11.07700         7.78800
C           3.65700        12.31300         8.29700
O           4.41400        12.53400         9.49600
C           3.69100        12.18800        10.68700
C           4.07600        10.80300        11.18000
O           3.69700         9.74900        10.28400
H           4.22000         9.96000         9.45900
C           3.39000        10.55800        12.51400
O           3.83400         9.27200        12.97100
H           3.50100         9.14300        13.90500
C           3.58200        14.66900        11.53800
O           3.72500        15.40200        10.31200
H           3.57600        16.37400        10.49400
C           3.96500        13.21700        11.77200
O           3.51700        12.91700        13.10200
C           3.81700        11.58700        13.54800
O           3.06000        11.51900        14.76400
C           3.84800        11.78900        15.93300
C           3.61700        13.22000        16.39000
O           4.00500        14.19000        15.40700
H           3.80000        13.70800        14.55500
C           4.07000        13.52100        17.81000
O           3.47300        14.74500        18.26200
H           3.75600        14.80300        19.22000
C           4.13400         9.56400        16.92100
O           3.58600         8.64000        15.97000
H           4.02300         7.75500        16.13100
C           3.48500        10.92300        17.12800
O           4.15200        11.26900        18.35000
C           3.70200        12.51900        18.89200
O           4.57100        12.70000        20.01900
C           4.05400        12.37400        21.31800
C           4.44800        10.97800        21.77000
O           4.18700        10.04300        20.71300
H           4.28000        10.42600        19.79400
C           3.72600        10.73700        23.08600
O           3.76200         9.38000        23.55100
H           3.90000         9.33700        24.54000
C           3.68300        14.73300        22.06200
O           4.01700        15.48500        20.88700
H           3.85900        16.45500        21.07500
C           4.46500        13.45300        22.30700
O           4.00200        13.07800        23.61200
C           4.33300        11.75000        24.04300
O           3.52400        11.66800        25.22600
C           4.22400        11.90000        26.45700
C           4.00100        13.29000        27.03000
O           4.38100        14.31200        26.09700
H           4.12600        13.99700        25.18300
C           4.48700        13.55200        28.44600
O           3.78800        14.72700        28.88300
H           4.06400        14.86400        29.83500
C           4.30000         9.51400        27.30500
O           4.07000         8.79800        26.08300
H           4.05800         7.83400        26.34700
C           3.80800        10.93100        27.55200
O           4.37300        11.21100        28.84100
C           4.02900        12.47900        29.41900
O           4.84200        12.67300        30.58600
C           4.13600        12.37100        31.79900
C           4.52300        11.01200        32.35900
O           4.63200         9.92700        31.42600
H           4.77400        10.39200        30.55200
C           3.74000        10.64300        33.60800
O           3.97000         9.34700        34.18000
H           3.80500         9.37300        35.16600
C           3.93800        14.84400        32.64300
O           4.31800        15.60200        31.48600
H           4.16600        16.57600        31.65600
C           4.36200        13.40600        32.88900
O           3.75000        13.04900        34.13600
C           4.09600        11.73700        34.60200
O           3.51000        11.46900        35.88400
C           4.09100        11.89000        37.12700
C           3.73000        13.31900        37.50100
O           4.08800        14.28500        36.50300
H           3.98200        13.92100        35.57700
C           4.20900        13.60700        38.91500
O           3.78000        14.85100        39.48700
H           3.93100        14.90600        40.47400
C           4.09600         9.41600        37.88400
O           3.54800         8.68200        36.77800
H           3.82400         7.72100        36.80300
C           3.73900        10.86100        38.18900
O           4.36100        11.23200        39.42800
C           3.80200        12.48400        39.85400
O           4.46500        12.55900        41.12500
C           8.02500        24.28300         2.83300
C           7.43100        25.58700         3.34200
O           7.45400        26.56400         2.29100
H           7.24100        26.09600         1.43400
C           7.98000        25.95100         4.71200
O           7.36200        27.16300         5.16600
H           7.62100        27.26100         6.12700
C           7.94500        21.76900         3.57100
O           7.60000        21.13400         2.33100
H           7.70200        20.15000         2.47800
C           7.61700        23.22800         3.84700
O           8.18200        23.55000         5.12600
C           7.70000        24.79300         5.65600
O           8.43300        25.01400         6.87000
C           7.75900        24.60100         8.06800
C           8.23000        23.24300         8.56100
O           7.88900        22.24900         7.58300
H           8.12700        22.54200         6.65800
C           7.79700        22.91400         9.98000
O           8.43400        21.72600        10.47200
H           8.08300        21.45000        11.36700
C           7.71100        26.96300         8.99600
O           8.09000        27.61100         7.77300
H           8.10100        28.61000         7.81300
C           8.23100        25.54500         9.16200
O           7.70400        25.30800        10.47600
C           8.08300        24.02000        10.98200
O           7.26800        23.86100        12.15200
C           7.95300        24.13700        13.38300
C           7.40200        25.49200        13.79600
O           7.67100        26.52400        12.83500
H           7.54900        25.98100        12.00500
C           7.85000        25.84600        15.20500
O           7.19900        27.01900        15.71400
H           7.69900        27.09400        16.57700
C           8.04000        21.71900        14.07400
O           7.53800        21.02300        12.92400
H           7.68000        20.03500        12.97500
C           7.51200        23.10500        14.40800
O           8.07300        23.43100        15.68800
C           7.52500        24.68300        16.12700
O           8.21200        24.99700        17.34700
C           7.74500        24.60200        18.64500
C           8.27000        23.26500        19.14300
O           7.84400        22.21300        18.26500
H           8.19300        22.39300        17.34500
C           7.64700        22.99300        20.50200
O           8.36300        21.94800        21.17700
H           7.82700        21.68000        21.97700
C           7.43300        27.11000        19.30300
O           8.09700        27.84300        18.26400
H           7.99900        28.80000        18.53800
C           7.91600        25.71500        19.66600
O           7.20100        25.30300        20.84000
C           7.78500        24.15500        21.47200
O           7.04000        23.81000        22.64900
C           7.58900        24.23700        23.90400
C           7.21800        25.57900        24.51500
O           7.47200        26.67200        23.62100
H           6.99300        26.43300        22.77700
C           7.88700        25.90700        25.84000
O           7.24200        26.97300        26.55300
H           7.50500        26.88300        27.51400
C           7.97100        21.74600        24.59700
O           7.25600        21.03100        23.57900
H           7.52900        20.07200        23.65800
C           7.52500        23.15200        24.96600
O           8.38300        23.52200        26.05500
C           7.77600        24.65500        26.69400
O           8.54000        24.80100        27.89900
C           7.89100        24.35500        29.09900
C           8.51000        23.07200        29.63000
O           8.05000        22.01700        28.77400
H           8.38200        22.21500        27.85200
C           7.94300        22.71700        30.99500
O           8.59900        21.58700        31.58900
H           8.22400        21.45900        32.50700
C           7.45100        26.73600        29.74800
O           8.22100        27.57100        28.87200
H           7.91000        28.50300        29.06000
C           8.13700        25.43700        30.13900
O           7.42700        25.05600        31.32600
C           8.02000        23.90400        31.94100
O           7.26500        23.69200        33.14300
C           7.86600        24.22500        34.33200
C           7.22400        25.55000        34.71000
O           7.52300        26.59100        33.76800
H           7.35800        26.28600        32.83000
C           7.78900        25.99500        36.04900
O           7.11000        27.16500        36.52700
H           7.71200        27.47000        37.26500
C           8.21300        21.95800        35.16600
O           7.55500        21.11000        34.21300
H           7.75700        20.15600        34.43800
C           7.47900        23.26000        35.44100
O           7.99300        23.71800        36.70100
C           7.54600        24.99900        37.17100
O           8.34800        25.26900        38.33000
C           7.74900        24.76900        39.53400
C           8.20100        23.39000        39.98600
O           7.79600        22.39700        39.03300
H           8.00300        22.66600        38.09200
C           7.77100        23.00600        41.39200
O           8.26400        21.76600        41.92100
H           7.88500        21.66500        42.84100
C           7.57300        27.20500        40.32300
O           8.30400        27.80400        39.24200
H           8.12700        28.78800        39.24600
C           7.96900        25.77300        -1.41500
O           7.39000        25.27500        -0.20000
C           8.01700        24.10500         0.34500
O           7.34200        23.99100         1.60500
C           3.41600        20.34500         0.30700
C           3.54100        18.92500        42.90000
O           3.25400        17.91300        41.92300
H           3.65700        18.25100        41.07300
C           2.90900        18.72700         2.19700
O           3.06200        17.38700         2.68800
H           2.98000        17.33900         3.68400
C           4.10700        22.69900         1.04000
O           3.11600        23.40200         0.27700
H           3.16700        24.38500         0.45000
C           3.92900        21.23900         1.42500
O           3.15000        21.03300         2.61300
C           3.39700        19.75100         3.20900
O           2.60200        19.77100         4.40400
C           3.30900        20.08500         5.61300