# freq=raman b3lyp/6-31+g(2d,p) geom=connectivity

280 9818/9818.com

0 1
C           8.01900         7.94100         2.95200
C           7.47200         9.24000         3.52000
O           7.48800        10.29900         2.55200
H           7.48600         9.88700         1.64000
C           8.14000         9.62500         4.83000
O           7.63200        10.84800         5.38300
H           7.86200        10.94900         6.35100
C           8.82200         5.63700         3.57400
O           8.36700         4.95100         2.39800
H           8.21700         3.97100         2.52400
C           8.01600         6.85000         4.01000
O           8.55300         7.23000         5.28500
C           7.99900         8.45400         5.79000
O           8.69500         8.58700         7.03800
C           7.97200         8.18200         8.21000
C           8.38200         6.78400         8.64500
O           8.20900         5.75700         7.65700
H           8.35600         6.21700         6.78200
C           7.83700         6.49000        10.03300
O           8.25100         5.22100        10.55800
H           7.99400         5.06400        11.51100
C           7.89600        10.63000         8.97000
O           8.22500        11.33300         7.76400
H           8.21600        12.27900         8.08800
C           8.38900         9.21800         9.24100
O           7.93100         8.90400        10.56400
C           8.33300         7.58600        10.96200
O           7.81600         7.39300        12.28600
C           8.40600         7.80900        13.52600
C           8.04600         9.25200        13.83900
O           8.54000        10.18800        12.87000
H           8.19200         9.94400        11.96400
C           8.45900         9.66800        15.24100
O           7.87400        10.92000        15.62900
H           8.18500        11.18500        16.54200
C           7.98400         5.45200        14.38200
O           7.45200         4.69800        13.28300
H           7.45700         3.73000        13.53600
C           7.82000         6.94300        14.62900
O           8.42000         7.41200        15.84400
C           8.00400         8.70000        16.32100
O           8.74700         8.75300        17.54800
C           8.09800         8.37900        18.77200
C           8.71600         7.08900        19.28700
O           8.39400         6.12500        18.27300
H           8.29300         6.53600        17.36700
C           8.21200         6.61800        20.64100
O           8.92100         5.44500        21.06800
H           8.79400         5.22600        22.03500
C           7.99400        10.81900        19.57700
O           8.46500        11.47100        18.38900
H           8.49100        12.46700        18.47900
C           8.38800         9.38200        19.87700
O           7.95900         8.97100        21.18300
C           8.56100         7.73900        21.60600
O           7.74200         7.55500        22.77100
C           8.43100         7.93100        23.97200
C           7.98200         9.27600        24.51900
O           8.14300        10.37900        23.61400
H           7.85100        10.08100        22.70600
C           8.72300         9.55800        25.81600
O           8.17200        10.77700        26.33400
H           8.50100        10.93500        27.26500
C           8.78900         5.58500        24.71400
O           8.49300         4.71900        23.60900
H           8.30200         3.78700        23.91500
C           8.13600         6.91300        25.06100
O           8.84400         7.18700        26.27800
C           8.47800         8.45800        26.83600
O           9.22200         8.63400        28.05000
C           8.53200         8.26000        29.25200
C           8.96000         6.88500        29.74000
O           8.52800         5.82400        28.87500
H           8.94200         6.03000        27.98900
C           8.31700         6.61200        31.09000
O           8.94100         5.46200        31.67800
H           8.51600         5.34200        32.57500
C           8.30000        10.68400        29.93100
O           8.95700        11.37700        28.86000
H           8.75100        12.35600        28.88200
C           8.87400         9.32100        30.28500
O           8.24100         8.96700        31.52300
C           8.70900         7.71900        32.05500
O           7.80700         7.58500        33.16300
C           8.37900         7.81800        34.45800
C           7.89700         9.19800        34.87400
O           8.45500        10.15100        33.95700
H           8.28800         9.62000        33.12600
C           8.27200         9.69300        36.26100
O           7.59400        10.87400        36.71500
H           7.90800        11.10700        37.63600
C           8.52000         5.50000        35.25700
O           8.04900         4.81300        34.08800
H           7.95900         3.82400        34.20600
C           7.97500         6.88100        35.58500
O           8.47500         7.28000        36.86900
C           8.01800         8.58100        37.26500
O           8.68700         8.82600        38.51100
C           7.94800         8.47500        39.69000
C           8.55300         7.18500        40.21800
O           8.33200         6.09400        39.31300
H           8.47400         6.37300        38.36300
C           8.21800         6.73000        -0.43800
O           9.16600         5.79900         0.10500
H           8.84100         5.58500         1.02600
C           7.48400        10.79800        40.49900
O           7.86600        11.52300        39.32100
H           7.58600        12.47800        39.42700
C           8.17000         9.48300        -1.26200
O           7.56000         9.07900        -0.02800
C           8.08700         7.87600         0.55100
O           7.35100         7.55700         1.74100
C           4.07100         4.08900         0.10700
C           4.25500         2.68800        42.74200
O           4.03200         1.75100        41.67900
H           4.32200         2.23000        40.85000
C           3.69800         2.40800         2.06300
O           4.36600         1.18900         2.42000
H           4.05600         0.89400         3.32400
C           4.11000         6.60900         0.92100
O           4.46500         7.35200        -0.25400
H           4.35900         8.31000         0.01200
C           4.46300         5.14500         1.12800
O           3.93000         4.88300         2.43500
C           4.15100         3.56000         2.94500
O           3.41200         3.48400         4.17200
C           4.05700         3.77300         5.42100
C           3.71100         5.17700         5.88900
O           4.24600         6.06300         4.89500
H           4.23200         5.51000         4.06200
C           4.30000         5.62700         7.21600
O           3.81000         6.87600         7.72400
H           4.13000         7.00300         8.66300
C           3.97700         1.40300         6.24600
O           3.72100         0.73900         5.00000
H           3.84600        -0.22100         5.25100
C           3.64300         2.85300         6.55800
O           4.36800         3.23100         7.73700
C           4.00700         4.53100         8.22600
O           4.73100         4.70600         9.45300
C           4.02400         4.29500        10.63200
C           4.58000         2.99500        11.19000
O           4.92000         2.00800        10.20600
H           5.26800         2.46400         9.38800
C           3.84700         2.51800        12.43300
O           4.01800         1.19400        12.96100
H           3.98200         1.12600        13.95800
C           3.80000         6.70200        11.68500
O           4.36100         7.34300        10.52900
H           4.43000         8.33500        10.63600
C           4.20100         5.24100        11.80800
O           3.61500         4.81600        13.04700
C           4.21300         3.57800        13.45900
O           3.60600         3.34700        14.73900
C           4.31100         3.67400        15.94500
C           3.90400         5.05500        16.43200
O           4.15500         6.02500        15.40400
H           4.06700         5.57900        14.51400
C           4.49200         5.45800        17.77400
O           3.89900         6.69000        18.21100
H           4.29300         6.87100        19.11200
C           4.22000         1.33400        16.76500
O           3.99000         0.55100        15.58500
H           4.22700        -0.38500        15.84600
C           3.78800         2.76500        17.04500
O           4.13500         3.05000        18.40800
C           3.94200         4.43000        18.74900
O           4.76300         4.58800        19.91600
C           4.13800         4.47500        21.20300
C           4.47100         3.07100        21.68100
O           4.01500         2.04800        20.78500
H           4.08700         2.38300        19.84500
C           3.90100         2.76000        23.05500
O           4.49700         1.53700        23.51300
H           4.07100         1.28700        24.38200
C           4.13600         6.84900        21.99100
O           4.56900         7.56300        20.82400
H           4.46000         8.54700        20.96200
C           4.67400         5.44900        22.23900
O           4.05100         5.19700        23.50700
C           4.30500         3.87600        24.00500
O           3.58900         3.60000        25.21800
C           4.26700         3.76700        26.47100
C           3.97700         5.14800        27.03700
O           4.28900         6.20300        26.11700
H           4.26100         5.80300        25.20100
C           4.74100         5.40400        28.32600
O           4.58400         6.74500        28.81300
H           4.79200         6.81500        29.78800
C           4.11400         1.43400        27.15300
O           3.73800         0.83700        25.90300
H           3.79800        -0.16100        25.89700
C           3.75300         2.85100        27.57000
O           4.39800         3.10100        28.82800
C           4.13800         4.42400        29.31900
O           4.79300         4.43800        30.59500
C           4.00100         4.14300        31.75500
C           4.18700         2.69800        32.18800
O           3.89900         1.79100        31.11300
H           4.21300         2.29300        30.30700
C           3.46500         2.47400        33.50600
O           3.63600         1.14500        34.02200
H           3.45900         1.11200        35.00500
C           3.95900         6.53100        32.63800
O           4.70300         7.30100        31.68200
H           4.44700         8.26600        31.73600
C           4.42400         5.10000        32.85700
O           3.77700         4.66500        34.06100
C           4.13000         3.36100        34.54600
O           3.58600         3.30200        35.87300
C           4.37400         3.64100        37.02300
C           4.09200         5.08000        37.42600
O           4.38900         6.04700        36.40900
H           4.04600         5.75600        35.51600
C           4.71800         5.40600        38.77200
O           4.68000         6.75600        39.25800
H           4.35300         6.83100        40.20000
C           4.09000         1.26700        37.75000
O           3.63400         0.48900        36.63300
H           4.00400        -0.43500        36.73100
C           3.79500         2.72000        38.08400
O           4.37800         3.04900        39.35300
C           4.11200         4.40500        39.74200
O           4.82900         4.36800        40.98400
C           7.79300        16.03300         2.98200
C           7.30400        17.37200         3.51000
O           7.61900        18.37800         2.53600
H           7.54500        17.94000         1.64000
C           7.86000        17.82800         4.84900
O           7.24900        18.99900         5.41100
H           7.66500        19.25700         6.28300
C           7.79200        13.55000         3.69400
O           7.34000        12.94400         2.47400
H           7.38500        11.95600         2.62300
C           7.47600        14.99500         4.04600
O           8.09200        15.33400         5.29700
C           7.66100        16.62300         5.75500
O           8.34900        16.64700         7.01400
C           7.59400        16.43100         8.21600
C           8.26100        15.13900         8.65700
O           8.07500        14.06300         7.72500
H           8.29200        14.53300         6.86900
C           7.74900        14.67700        10.01200
O           8.37600        13.46300        10.45000
H           8.02900        13.35300        11.38100
C           7.41100        18.94400         9.12600
O           7.63300        19.63200         7.88600
H           7.30700        20.57000         8.01000
C           7.95200        17.52600         9.20800
O           7.61000        17.07800        10.52800
C           8.06700        15.79800        10.98800
O           7.30600        15.62900        12.19300
C           7.92700        16.02300        13.42500
C           7.65200        17.44900        13.87200
O           8.22900        18.31300        12.88100
H           7.89300        18.04200        11.97900
C           8.23900        17.82600        15.22300
O           7.47000        18.91900        15.74600
H           7.84800        19.14200        16.64500
C           8.33400        13.64800        14.19400
O           7.82900        12.91100        13.07100
H           8.12100        11.96800        13.23000
C           7.76400        15.01200        14.54900
O           8.56100        15.43700        15.66400
C           8.12400        16.68600        16.22100
O           8.81800        16.82000        17.47000
C           8.12200        16.45300        18.67000
C           8.79600        15.17100        19.13200
O           8.59000        14.16400        18.13000
H           8.73100        14.54500        17.21600
C           8.39400        14.77300        20.54300
O           9.08800        13.61600        21.03000
H           8.78300        13.46500        21.97100
C           7.82900        18.92300        19.46500
O           8.14200        19.46900        18.17600
H           8.13600        20.46300        18.28500
C           8.38400        17.52900        19.71000
O           7.90200        17.11100        20.99500
C           8.49700        15.92100        21.53400
O           7.67000        15.66400        22.67700
C           8.21200        16.00500        23.96200
C           7.38400        17.17000        24.48000
O           7.37300        18.29900        23.59500
H           7.27500        18.03900        22.63500
C           7.93800        17.69000        25.79600
O           7.17800        18.84000        26.19400
H           7.37700        19.07300        27.14700
C           8.80500        13.73500        24.68600
O           8.42600        12.93400        23.55700
H           8.52500        11.97200        23.81200
C           7.95600        14.95000        25.02500
O           8.29400        15.30400        26.37400
C           7.72700        16.55600        26.78600
O           8.55000        16.82200        27.93100
C           8.11400        16.42200        29.23900
C           8.79000        15.16800        29.76900
O           8.57200        14.13800        28.79500
H           8.82800        14.57100        27.93100
C           8.37700        14.77100        31.17700
O           9.06800        13.65400        31.75600
H           8.63800        13.42000        32.62800
C           7.66600        18.89100        29.93100
O           7.84200        19.56500        28.67600
H           7.88600        20.54600        28.86400
C           8.33700        17.55900        30.22300
O           7.89400        17.05800        31.49200
C           8.53100        15.94300        32.13300
O           7.60500        15.73500        33.20900
C           8.08500        16.05000        34.52400
C           7.33500        17.26500        35.04600
O           7.15800        18.32300        34.09200
H           7.09500        17.82900        33.22500
C           7.89400        17.71300        36.38700
O           7.39100        18.97600        36.84500
H           7.70000        19.16100        37.77800
C           8.42800        13.61100        35.10300
O           7.86100        12.81600        34.05200
H           8.32500        11.94600        34.22100
C           7.89100        14.95700        35.56200
O           8.42100        15.35300        36.83600
C           7.83400        16.55100        37.36500
O           8.58600        16.72200        38.57500
C           7.88100        16.49800        39.80400
C           8.22400        15.11600        40.33800
O           8.05900        14.06600        39.37400
H           8.26500        14.46200        38.47900
C           7.66900        14.73800        -0.36400
O           8.50600        13.71200         0.19100
H           8.03900        13.38800         1.01300
C           7.72400        18.91400        40.52000
O           8.34500        19.37800        39.31200
H           8.53300        20.33900        39.51800
C           8.02000        17.49000        -1.12000
O           7.22400        17.10000         0.00900
C           7.85000        15.93200         0.55900
O           7.13200        15.64600         1.76800
C           3.63400        12.41600         0.29700
C           4.10500        11.05200        42.85500
O           3.76500        10.08600        41.84900
H           3.92200        10.53900        40.97100
C           3.64900        10.68400         2.19100
O           4.29500         9.46300         2.57800
H           3.87400         9.15600         3.43200
C           3.46900        14.85900         0.98900
O           4.09100        15.57900        -0.08400
H           3.78700        16.50600         0.13700
C           4.00200        13.47500         1.32300
O           3.42700        13.08300         2.57800
C           3.95000        11.85700         3.11000
O           3.11900        11.69300         4.26800
C           3.93300        12.04100         5.39800
C           3.56600        13.44300         5.85500
O           3.98600        14.49400         4.97300
H           3.72200        14.10200         4.09200
C           4.15300        13.82600         7.20400
O           3.74300        15.06900         7.79200
H           4.13900        15.11200         8.70900
C           3.96800         9.65200         6.23000
O           3.58800         8.83400         5.11400
H           3.87000         7.89600         5.31600
C           3.62100        11.09700         6.54800
O           4.31800        11.40300         7.76400
C           3.83300        12.69200         8.16600
O           4.73200        12.72200         9.28400
C           4.03300        12.43700        10.50400
C           4.51700        11.11400        11.07500
O           4.11000        10.03800        10.21700
H           4.26500        10.35600         9.28200
C           3.86800        10.72300        12.39200
O           4.43000         9.52200        12.94100
H           4.00600         9.29900        13.81800
C           3.70200        14.74300        11.45000
O           3.93200        15.58400        10.31000
H           3.70300        16.50900        10.61400
C           4.30900        13.36800        11.67400
O           3.57700        13.04900        12.86600
C           4.05100        11.81800        13.43000
O           3.35300        11.71900        14.68000
C           4.10800        11.87100        15.89100
C           3.62500        13.22100        16.39500
O           3.71700        14.34100        15.50300
H           3.48100        14.02700        14.58400
C           4.21200        13.62900        17.73700
O           3.69100        14.83100        18.32200
H           4.06100        15.10700        19.20900
C           4.00900         9.42400        16.65000
O           3.56100         8.71400        15.48600
H           3.61600         7.72300        15.61100
C           3.71600        10.88000        16.97500
O           4.28400        11.20100        18.25200
C           3.94600        12.51100        18.73200
O           4.70900        12.66200        19.93800
C           4.11200        12.40200        21.21700
C           4.57000        11.05300        21.74600
O           4.17100        10.05200        20.79900
H           4.24200        10.41800        19.87100
C           3.96000        10.79400        23.11400
O           4.56100         9.61500        23.67000
H           4.19300         9.37400        24.56800
C           4.19300        14.81400        21.81200
O           4.83500        15.58600        20.78700
H           4.73200        16.53800        21.07600
C           4.67800        13.42300        22.19000
O           4.14800        13.23200        23.51100
C           4.33200        11.92100        24.06300
O           3.64200        11.82300        25.31700
C           4.38900        11.96300        26.53400
C           4.08600        13.36500        27.03800
O           4.63300        14.33800        26.13700
H           4.62600        13.91700        25.23000
C           4.58900        13.57000        28.45800
O           4.12900        14.88900        28.78600
H           4.27300        14.92300        29.77500
C           4.51100         9.52800        27.26800
O           4.04600         8.81200        26.11400
H           4.14900         7.86800        26.42800
C           3.92400        10.90600        27.52300
O           4.45900        11.23900        28.81200
C           4.02900        12.49000        29.36900
O           4.74800        12.63200        30.60300
C           4.03600        12.26100        31.79200
C           4.29400        10.86200        32.32900
O           4.07600         9.86400        31.32100
H           4.36000        10.18100        30.41600
C           3.65400        10.63300        33.68800
O           4.11200         9.36800        34.18800
H           3.75600         9.27100        35.11700
C           3.79700        14.70000        32.41900
O           4.41600        15.47300        31.38000
H           4.25900        16.45900        31.41900
C           4.27700        13.32400        32.85100
O           3.62000        13.03900        34.09500
C           3.95800        11.76300        34.65800
O           3.14100        11.61200        35.82800
C           3.80900        11.88800        37.06800
C           3.54600        13.30900        37.53900
O           3.86900        14.27600        36.52900
H           3.54800        13.84200        35.68800
C           4.20600        13.59600        38.87800
O           3.89100        14.94700        39.24300
H           4.08800        15.08400        40.21300
C           3.92700         9.59300        37.93200
O           3.69800         8.80900        36.75200
H           4.14600         7.93600        36.94300
C           3.36500        10.97900        38.20200
O           3.87800        11.28500        39.50700
C           3.70600        12.63900        39.94900
O           4.40600        12.74500        41.19600
C           7.82800        24.26900         2.99800
C           7.20900        25.55900         3.51100
O           7.12300        26.57400         2.50000
H           6.79800        26.07200         1.69800
C           7.71400        25.90000         4.90300
O           7.23000        27.14500         5.42700
H           7.47800        27.25600         6.38900
C           7.87300        21.76300         3.63300
O           7.43500        21.05800         2.46200
H           7.52200        20.06900         2.58300
C           7.35700        23.16200         3.92700
O           7.77100        23.48900         5.26200
C           7.34200        24.74200         5.81500
O           8.20700        24.75200         6.96100
C           7.55900        24.59000         8.23100
C           8.14800        23.26900         8.69600
O           7.69000        22.29100         7.75100
H           7.61000        22.74900         6.86600
C           7.73500        22.83500        10.09300
O           8.19300        21.57500        10.60500
H           7.84900        21.40500        11.52900
C           7.82500        27.05700         8.97100
O           8.24600        27.68100         7.74900
H           8.06300        28.64600         7.93300
C           8.02800        25.58300         9.28200
O           7.48800        25.22700        10.56300
C           7.98000        23.97700        11.06600
O           7.13100        23.70900        12.19100
C           7.69300        24.08500        13.45700
C           7.28000        25.44900        13.98700
O           7.47700        26.37900        12.91200
H           7.35900        25.87900        12.05300
C           7.92600        25.79500        15.31800
O           7.21000        26.88100        15.92500
H           7.66600        27.07400        16.79400
C           8.07000        21.76400        14.13600
O           7.65400        20.97200        13.01500
H           7.93800        20.04100        13.24200
C           7.51200        23.10000        14.60100
O           8.13600        23.42900        15.85000
C           7.69400        24.70100        16.34700
O           8.48700        24.83100        17.53600
C           7.85100        24.51500        18.78300
C           8.33600        23.16100        19.27500
O           8.14300        22.13700        18.28900
H           8.41000        22.60000        17.44400
C           7.85900        22.75100        20.65900
O           8.60900        21.72000        21.31900
H           8.21400        21.62900        22.23300
C           7.95800        26.97600        19.65700
O           8.23500        27.75100        18.48100
H           7.92900        28.69200        18.62700
C           8.27200        25.50300        19.85900
O           7.77800        25.14600        21.15800
C           8.12600        23.85200        21.67200
O           7.27000        23.61600        22.79900
C           7.80900        24.17900        24.00400
C           7.28300        25.54500        24.41400
O           7.49900        26.62200        23.49100
H           7.22000        26.33900        22.57300
C           7.85200        25.93800        25.76700
O           7.18500        27.12200        26.22700
H           7.49200        27.43100        27.12700
C           8.50000        21.81500        24.79100
O           7.86900        21.06300        23.74400
H           7.98600        20.07400        23.83600
C           7.86400        23.15400        25.12500
O           8.57200        23.65500        26.26800
C           7.79400        24.76700        26.73500
O           8.39900        24.98300        28.01800
C           7.67900        24.62200        29.20600
C           8.22200        23.27400        29.65000
O           7.79600        22.23100        28.76200
H           8.17600        22.51700        27.88300
C           7.84200        22.93800        31.08300
O           8.72500        22.00900        31.72900
H           8.22600        21.58200        32.48300
C           7.27000        27.01800        29.82400
O           7.75700        27.79100        28.71800
H           7.54300        28.73500        28.97000
C           7.88300        25.69700        30.26100
O           7.39200        25.32900        31.55800
C           7.96300        24.10700        32.04700
O           7.19500        23.79100        33.21700
C           7.70700        24.18300        34.49900
C           7.40700        25.57500        35.03000
O           7.79300        26.47900        33.98400
H           7.53100        26.06500        33.11200
C           8.11200        25.91800        36.33200
O           7.56300        27.14500        36.83500
H           7.95900        27.45700        37.69800
C           7.72700        21.75600        35.11700
O           7.39400        21.02400        33.92900
H           7.34100        20.04500        34.12500
C           7.28200        23.14900        35.52900
O           8.13400        23.47000        36.63800
C           7.90300        24.73800        37.26800
O           8.50400        24.89100        38.56200
C           7.76100        24.57100        39.74700
C           8.28800        23.23800        40.25200
O           8.02200        22.19500        39.30300
H           8.09500        22.65000        38.41500
C           7.85200        22.93200        -0.39000
O           8.50700        21.75300         0.10100
H           8.12800        21.52200         0.99700
C           7.78800        27.04000        40.58100
O           8.18200        27.76900        39.40900
H           8.17500        28.73800        39.65700
C           8.17700        25.59100        -1.27400
O           7.56500        25.34300        -0.00000
C           8.11300        24.12200         0.51900
O           7.30600        23.96800         1.69600
C           3.77700        20.52000         0.14300
C           3.95700        19.10400        42.74000
O           3.59200        18.11100        41.77000
H           3.93500        18.37200        40.86800
C           3.18700        18.83200         1.95900
O           3.43700        17.53100         2.51000
H           3.20900        17.57400         3.48300
C           3.80000        22.98800         0.94000
O           4.02500        23.59700        -0.34000
H           3.63000        24.51500        -0.28900
C           4.08000        21.52500         1.24200
O           3.37400        21.19000         2.44600
C           3.67400        19.88000         2.94700
O           2.89100        19.70900         4.13700
C           3.54300        20.00700         5.38000