# freq=raman b3lyp/6-31+g(2d,p) geom=connectivity

290 9560/9560.com

0 1
C           7.82300         7.96300         2.95500
C           7.28000         9.32500         3.35400
O           7.39500        10.38700         2.39600
H           7.38600        10.04100         1.45800
C           7.81600         9.78500         4.70100
O           7.09500        10.91900         5.20500
H           7.64400        11.08400         6.02500
C           8.16900         5.58200         3.67700
O           7.72100         4.81000         2.55400
H           7.83300         3.84200         2.77700
C           7.51000         6.91100         4.00600
O           8.09100         7.38200         5.23100
C           7.65000         8.66100         5.71100
O           8.41000         8.85100         6.91300
C           7.86100         8.36200         8.14500
C           8.51700         7.11300         8.71200
O           8.40800         6.04600         7.75900
H           8.53000         6.47700         6.86500
C           8.00600         6.60700        10.05100
O           8.88800         5.58500        10.53700
H           8.67000         5.28000        11.46400
C           7.53100        10.85600         8.80800
O           8.09800        11.51800         7.66800
H           8.09400        12.49600         7.87600
C           7.98600         9.45700         9.19100
O           7.40600         8.95600        10.40400
C           8.06400         7.81400        10.97300
O           7.39300         7.63200        12.22800
C           8.16500         7.90100        13.40800
C           7.52800         9.13600        14.02400
O           7.44000        10.16200        13.02500
H           7.02300         9.78300        12.19900
C           8.17600         9.61800        15.31200
O           7.57300        10.75900        15.93900
H           7.84700        10.73600        16.90100
C           8.62500         5.45100        14.02900
O           8.22900         4.73500        12.85000
H           8.46700         3.76600        12.90600
C           8.02000         6.78600        14.43100
O           8.64400         7.23200        15.64400
C           8.12600         8.42500        16.25200
O           8.89200         8.69700        17.43400
C           8.36300         8.22600        18.68200
C           8.92800         6.91400        19.20000
O           8.83200         5.81400        18.28400
H           9.05000         6.18300        17.38000
C           8.31600         6.51900        20.53400
O           9.01300         5.42400        21.14500
H           8.42800         5.09200        21.88600
C           8.04100        10.67900        19.47400
O           8.48300        11.45700        18.35200
H           8.34600        12.43300        18.52100
C           8.54000         9.27400        19.76800
O           7.79200         8.83200        20.91100
C           8.37200         7.67200        21.52300
O           7.47400         7.38200        22.60400
C           7.99600         7.78800        23.87800
C           7.30300         9.03300        24.40600
O           7.51200         9.99900        23.36600
H           6.98600         9.68600        22.57500
C           7.82700         9.49100        25.75800
O           7.04700        10.54700        26.33700
H           7.41500        10.94500        27.17700
C           8.36500         5.39700        24.64400
O           7.94000         4.60100        23.52800
H           8.21800         3.64700        23.64300
C           7.71800         6.74000        24.94300
O           8.33300         7.12900        26.17900
C           7.83400         8.34400        26.75600
O           8.72800         8.63200        27.84000
C           8.23300         8.42000        29.17000
C           8.74300         7.10400        29.73400
O           8.68100         6.00700        28.81100
H           8.82500         6.39600        27.90100
C           8.10200         6.69900        31.05100
O           8.61000         5.42600        31.47700
H           8.17500         5.34000        32.37300
C           8.20500        10.84100        29.92600
O           8.17300        11.44800        28.62600
H           8.19700        12.44400        28.71700
C           8.62200         9.41600        30.25100
O           8.23800         9.14800        31.60700
C           8.46700         7.79800        32.03500
O           7.58400         7.65500        33.15700
C           8.03800         7.88900        34.49800
C           7.45900         9.22600        34.93000
O           7.91100        10.31300        34.10900
H           7.86400         9.94200        33.18200
C           7.85500         9.59700        36.35000
O           7.32500        10.82000        36.88100
H           7.67400        11.06000        37.78700
C           8.29200         5.53900        35.23200
O           7.92300         4.89400        34.00400
H           8.10000         3.91000        34.01100
C           7.64600         6.87500        35.56100
O           8.19500         7.17800        36.85200
C           7.67600         8.43500        37.31300
O           8.58800         8.54500        38.41600
C           8.00400         8.33500        39.71000
C           8.60700         7.06200        40.28300
O           8.36800         5.98100        39.37100
H           8.46900         6.37100        38.45500
C           8.12300         6.63900        -0.40400
O           8.83100         5.56900         0.23800
H           8.24100         5.19300         0.95300
C           7.57200        10.68100        40.42600
O           8.19400        11.46000        39.39300
H           8.07300        12.43000        39.60100
C           8.26800         9.37700        -1.27900
O           7.59300         9.04900        -0.05600
C           8.11200         7.84300         0.52300
O           7.29700         7.58100         1.67500
C           3.66900         4.31100         0.42100
C           4.03400         2.89800        42.91100
O           4.01700         1.77900        42.01300
H           4.19900         2.24200        41.14600
C           3.48300         2.57700         2.22700
O           3.70300         1.20500         2.58700
H           3.59900         1.16700         3.58100
C           3.57900         6.70600         1.17500
O           3.88100         7.33300        -0.08000
H           3.66000         8.30200         0.03400
C           4.08200         5.30700         1.49200
O           3.74100         4.94400         2.83800
C           4.09000         3.59400         3.17900
O           3.30400         3.58400         4.37900
C           3.90900         3.86400         5.65000
C           3.39200         5.19700         6.16600
O           3.48400         6.25100         5.19700
H           3.31000         5.88000         4.28500
C           3.98400         5.59000         7.51000
O           3.72400         6.93200         7.94800
H           3.96300         6.96600         8.91800
C           3.96300         1.44100         6.37900
O           3.54300         0.73100         5.20500
H           3.94000        -0.18600         5.18600
C           3.53600         2.85800         6.72600
O           4.00300         3.25200         8.02500
C           3.60800         4.53300         8.53600
O           4.43700         4.74900         9.68700
C           3.85800         4.33000        10.93100
C           4.09300         2.87400        11.30100
O           3.70700         1.91100        10.31000
H           4.08100         2.15800         9.41600
C           3.58600         2.66700        12.71900
O           3.80400         1.28100        13.02000
H           3.94800         1.18100        14.00500
C           4.04300         6.71400        11.86000
O           4.23000         7.39600        10.61100
H           4.03600         8.36700        10.74700
C           4.54500         5.28000        11.89800
O           4.22400         4.93000        13.25200
C           4.40400         3.55900        13.63800
O           3.70300         3.71500        14.88000
C           4.40300         3.93800        16.11300
C           4.12800         5.31300        16.69900
O           4.26400         6.27700        15.64400
H           4.21800         5.78200        14.77700
C           4.67700         5.62900        18.08000
O           4.03700         6.80800        18.59100
H           3.93300         6.80200        19.58500
C           4.40100         1.52800        16.93200
O           4.21800         0.84800        15.68200
H           4.37400        -0.13000        15.81500
C           3.94000         2.95600        17.17700
O           4.53600         3.23900        18.45100
C           4.17600         4.51900        18.99000
O           4.78900         4.62600        20.28300
C           4.09000         4.29100        21.49100
C           4.64300         2.92700        21.86900
O           4.26400         1.96300        20.87500
H           4.48500         2.34200        19.97600
C           4.01800         2.43800        23.16500
O           4.64500         1.28100        23.73700
H           4.41000         1.07900        24.68700
C           3.55400         6.58400        22.22600
O           4.04700         7.40100        21.15400
H           3.72000         8.32600        21.34600
C           4.34700         5.33300        22.56800
O           3.72300         4.76400        23.72800
C           4.21600         3.51100        24.22400
O           3.45800         3.46200        25.44100
C           4.13100         3.81400        26.65900
C           3.73800         5.18100        27.19300
O           4.26400         6.20400        26.33500
H           4.20300         5.80700        25.41900
C           4.22500         5.50800        28.59600
O           3.64400         6.76100        28.98400
H           3.96800         7.06300        29.88000
C           4.31800         1.40200        27.56700
O           4.53800         0.63000        26.37800
H           4.24600        -0.31400        26.53200
C           3.66800         2.77300        27.66500
O           4.29900         3.10900        28.90900
C           3.79300         4.33400        29.45900
O           4.66000         4.36000        30.60200
C           4.00000         4.21200        31.86800
C           4.45200         2.87400        32.43100
O           4.27400         1.85500        31.43700
H           4.32500         2.40000        30.60000
C           3.79000         2.55400        33.76100
O           4.33900         1.34900        34.31400
H           3.80400         1.14200        35.13300
C           3.84900         6.67800        32.64200
O           4.20400         7.46400        31.49500
H           3.87500         8.39700        31.63900
C           4.36900         5.27200        32.89200
O           3.76000         4.91900        34.14300
C           4.14800         3.66900        34.73100
O           3.32000         3.66100        35.90300
C           3.94300         3.78100        37.19000
C           3.42700         5.10600        37.72700
O           3.51000         6.07400        36.67100
H           3.65100         5.57000        35.81900
C           4.18000         5.44200        39.00400
O           3.90000         6.79100        39.40700
H           3.98500         6.83400        40.40200
C           4.03000         1.35600        37.91700
O           3.57000         0.66300        36.74700
H           3.84700        -0.28800        36.88500
C           3.47800         2.74400        38.19900
O           3.87000         3.14500        39.52000
C           3.60500         4.46500        40.01700
O           4.33700         4.58400        41.24600
C           8.01700        16.10700         2.92200
C           7.51800        17.41500         3.51300
O           7.96200        18.41500         2.58500
H           7.74200        18.08700         1.66700
C           8.13300        17.78200         4.85400
O           7.49200        18.93300         5.42300
H           7.93100        19.09400         6.30700
C           8.13400        13.59400         3.58000
O           7.55400        12.95000         2.43600
H           7.63600        11.97400         2.63600
C           7.74200        15.01700         3.94400
O           8.43900        15.31300         5.16300
C           7.90200        16.53400         5.69000
O           8.62300        16.72900         6.91600
C           7.91400        16.48700         8.14000
C           8.43600        15.14000         8.61200
O           8.30200        14.07200         7.66400
H           8.76300        14.39700         6.83800
C           8.04500        14.70900        10.01700
O           8.84600        13.65400        10.56800
H           8.49300        13.56300        11.50000
C           7.68700        18.91000         8.86900
O           8.34000        19.68500         7.85300
H           8.06700        20.62700         8.04700
C           8.22900        17.52900         9.20100
O           7.71300        17.15600        10.48600
C           8.16500        15.88400        10.97300
O           7.55000        15.62000        12.24300
C           8.15900        16.02300        13.47800
C           7.40500        17.24800        13.96800
O           7.66700        18.29000        13.01800
H           7.21100        17.99400        12.17900
C           8.05900        17.62400        15.28800
O           7.43600        18.79800        15.83000
H           8.03700        19.13500        16.55500
C           8.25900        13.46700        14.04900
O           7.67500        12.92300        12.85700
H           7.70900        11.92400        12.83200
C           7.96100        14.89500        14.47800
O           8.60000        15.30700        15.69500
C           7.99300        16.47000        16.27500
O           8.76800        16.72600        17.45600
C           8.09000        16.47900        18.69600
C           8.62300        15.15600        19.22100
O           8.48100        14.06600        18.29900
H           8.60300        14.41700        17.37100
C           8.07000        14.75100        20.57800
O           8.68200        13.66800        21.29400
H           8.10900        13.39900        22.06800
C           7.94500        18.91800        19.09100
O           8.58400        19.49500        17.94300
H           8.59600        20.49200        17.86800
C           8.39600        17.59300        19.68400
O           7.71300        17.26300        20.90200
C           8.12900        16.00000        21.44100
O           7.31300        15.92600        22.62000
C           7.96200        16.05000        23.89400
C           7.62700        17.44800        24.38900
O           8.19300        18.44800        23.53000
H           8.02500        18.12400        22.59900
C           8.17800        17.75900        25.77100
O           7.41800        18.90700        26.17600
H           7.76600        19.16500        27.07700
C           7.94300        13.49500        24.65800
O           7.63900        12.68700        23.51300
H           7.74100        11.70100        23.64900
C           7.73100        14.97300        24.94200
O           8.32200        15.32300        26.20200
C           7.92500        16.60000        26.72200
O           8.68600        16.77800        27.92500
C           7.97500        16.47700        29.13500
C           8.59400        15.17000        29.60500
O           8.28400        14.09100        28.71200
H           8.46300        14.27600        27.74600
C           8.14600        14.79300        31.00800
O           8.82600        13.63400        31.51200
H           8.49900        13.48400        32.44500
C           7.99600        18.89600        29.78500
O           8.34000        19.59300        28.57900
H           8.30000        20.53800        28.90200
C           8.30300        17.47600        30.23300
O           7.68900        17.10800        31.47700
C           8.29500        15.92300        32.01500
O           7.51900        15.61200        33.18100
C           8.00600        16.04900        34.45800
C           7.49500        17.41900        34.87200
O           7.79900        18.46600        33.93900
H           7.58700        18.23800        32.98900
C           8.02300        17.81900        36.24100
O           7.59300        19.08800        36.75400
H           7.76400        19.18400        37.73400
C           8.06500        13.62300        35.37900
O           8.00800        12.88500        34.15000
H           7.94000        11.90100        34.31200
C           7.56000        15.05100        35.51400
O           8.15800        15.42600        36.76400
C           7.75000        16.71300        37.24800
O           8.54900        16.89300        38.42600
C           7.82400        16.62100        39.63500
C           8.33700        15.28300        40.14400
O           8.10000        14.24600        39.18100
H           8.34300        14.50800        38.24800
C           7.90100        14.98900        -0.49500
O           8.49700        13.78900         0.01900
H           7.99100        13.53300         0.84300
C           7.73300        18.99900        40.34700
O           8.19000        19.69000        39.17500
H           8.37800        20.64700        39.39700
C           8.30000        17.62700        -1.39200
O           7.86600        17.34800        -0.05300
C           8.24100        16.08100         0.50600
O           7.37500        15.97900         1.64500
C           3.74700        12.49100         0.31300
C           3.99400        11.08500        42.89900
O           3.69400        10.05100        41.95000
H           3.84000        10.45200        41.04600
C           3.40900        10.80200         2.20900
O           3.82000         9.51900         2.70200
H           3.57200         9.44700         3.66800
C           3.81300        14.89100         1.04700
O           4.53600        15.54000        -0.01000
H           4.42800        16.53100         0.06800
C           4.15700        13.45600         1.41300
O           3.52200        13.20700         2.67500
C           3.86200        11.89900         3.15800
O           3.16000        11.85700         4.40800
C           3.95500        12.04200         5.58800
C           3.65500        13.43700         6.11200
O           4.01700        14.44100         5.15300
H           3.61500        14.20600         4.26800
C           4.30600        13.66500         7.46700
O           4.04100        14.98600         7.96200
H           4.35400        14.98500         8.91200
C           3.87300         9.61500         6.37300
O           3.25700         8.96400         5.25200
H           3.21100         8.01100         5.55100
C           3.46400        11.05500         6.63600
O           3.94700        11.28500         7.96800
C           3.73600        12.63000         8.42200
O           4.49400        12.75100         9.63400
C           3.85000        12.45800        10.88300
C           4.20000        11.07600        11.41100
O           4.07600        10.11400        10.35300
H           4.06100        10.50100         9.43100
C           3.44200        10.73600        12.68300
O           3.77700         9.43200        13.17800
H           3.32900         9.25700        14.05500
C           3.75700        14.79900        11.66600
O           4.44200        15.51400        10.62700
H           4.16800        16.47500        10.59300
C           4.30800        13.41600        11.97100
O           3.74400        13.05600        13.24000
C           3.96200        11.72000        13.71800
O           3.23700        11.70100        14.95600
C           3.91800        11.90600        16.20300
C           3.43600        13.27400        16.65800
O           3.77800        14.31900        15.73600
H           3.81000        13.95600        14.80500
C           4.02800        13.62600        18.01400
O           3.56700        14.94700        18.33400
H           3.67600        15.01900        19.32500
C           4.02500         9.52700        16.99700
O           3.41400         8.86100        15.88300
H           3.53500         7.88700        16.07500
C           3.62200        10.95100        17.34800
O           4.26300        11.29000        18.58600
C           3.68200        12.53100        19.01000
O           4.43200        12.75500        20.21300
C           3.68800        12.61000        21.43200
C           3.96000        11.20400        21.94300
O           3.50700        10.19700        21.02700
H           3.82800        10.54500        20.14600
C           3.32400        10.87700        23.28400
O           3.48100         9.54000        23.78100
H           3.23000         9.46500        24.74600
C           3.89500        14.99300        22.18800
O           4.23900        15.62500        20.94700
H           4.06200        16.60800        21.00100
C           4.21400        13.54200        22.51100
O           3.57800        13.22800        23.75800
C           3.86800        11.91300        24.25400
O           3.13900        11.77600        25.48300
C           3.86100        12.14400        26.66800
C           3.73100        13.60300        27.07300
O           4.16700        14.50300        26.04300
H           3.79500        14.30400        25.13700
C           4.42100        13.76800        28.41700
O           4.13800        15.09400        28.88500
H           4.42000        15.14800        29.84300
C           3.68000         9.66800        27.43700
O           3.02200         8.93600        26.39300
H           3.38900         8.00600        26.38400
C           3.38400        11.13600        27.70100
O           3.94500        11.52600        28.96300
C           3.72800        12.86600        29.42600
O           4.42600        12.78500        30.67700
C           3.68200        12.52900        31.87700
C           3.83800        11.07700        32.29700
O           3.38900        10.11100        31.33400
H           3.45600        10.57600        30.45200
C           3.24000        10.78000        33.66300
O           3.64600         9.47500        34.10200
H           3.20300         9.24400        34.96800
C           3.83300        14.89400        32.76200
O           4.40600        15.57000        31.63300
H           4.21200        16.54900        31.69900
C           4.21300        13.43700        32.97400
O           3.50600        13.19900        34.19900
C           3.68300        11.84800        34.64900
O           3.09500        11.93700        35.95500
C           3.95400        11.96600        37.10500
C           3.74600        13.37500        37.63400
O           4.01600        14.31600        36.58400
H           3.54700        14.10700        35.72600
C           4.39800        13.65900        38.97800
O           3.88000        14.88500        39.51600
H           4.30000        15.06800        40.40400
C           3.78800         9.52100        37.96500
O           3.26800         8.86200        36.80100
H           3.17200         7.88500        36.99600
C           3.50000        10.99700        38.18500
O           4.11900        11.19100        39.46400
C           3.96600        12.54400        39.91600
O           4.58100        12.57500        41.21200
C           7.82800        24.34000         2.94000
C           7.33900        25.68700         3.44700
O           7.57200        26.70200         2.46000
H           7.10200        26.37400         1.64000
C           7.83900        26.06400         4.83200
O           7.12900        27.20000         5.34700
H           7.47500        27.55900         6.21300
C           7.98600        21.87100         3.84700
O           7.51100        21.02700         2.78900
H           7.66200        20.09900         3.13000
C           7.57400        23.32200         4.03900
O           8.28400        23.69400         5.22900
C           7.75300        24.89700         5.80300
O           8.39600        25.24800         7.03700
C           7.70300        24.90200         8.24500
C           8.16400        23.52700         8.70200
O           7.92400        22.47500         7.75700
H           8.08600        22.91700         6.87500
C           7.65800        23.09100        10.06800
O           8.11800        21.84100        10.60100
H           7.89600        21.63000        11.55300
C           7.60400        27.19700         9.04300
O           8.07000        27.82400         7.84000
H           8.35900        28.76500         8.01500
C           8.20400        25.83200         9.33800
O           7.77500        25.48000        10.66200
C           8.19700        24.15400        11.01100
O           7.32800        23.99200        12.14100
C           7.81100        24.30100        13.45700
C           7.35900        25.66400        13.95500
O           7.66800        26.62800        12.93800
H           7.56000        26.21100        12.03600
C           7.78000        25.99700        15.37700
O           7.20800        27.10700        16.08400
H           7.55300        27.28400        17.00600
C           7.74600        21.90900        14.30700
O           7.67800        21.12900        13.10400
H           7.58000        20.17800        13.39800
C           7.33300        23.35200        14.54400
O           7.87100        23.52600        15.86300
C           7.48700        24.83400        16.31200
O           8.46900        25.00300        17.34500
C           7.98300        24.54800        18.61600
C           8.52400        23.22400        19.13100
O           8.33400        22.18900        18.15600
H           8.09200        22.65300        17.30300
C           8.02100        22.81600        20.50600
O           8.55800        21.59500        21.03500
H           8.11300        21.37000        21.90200
C           7.56800        26.96600        19.51700
O           7.97000        27.87300        18.48000
H           7.70200        28.81500        18.67800
C           8.27700        25.62700        19.64500
O           7.78400        25.19400        20.92100
C           8.33700        23.97500        21.43700
O           7.59400        23.88400        22.66100
C           8.17400        24.09700        23.95700
C           7.78000        25.53300        24.26000
O           8.37000        26.53000        23.41300
H           8.21800        26.25000        22.46500
C           8.23800        25.92200        25.65600
O           7.35000        27.02900        25.86800
H           7.39900        27.21900        26.84800
C           7.94200        21.83800        24.83600
O           7.52800        21.08200        23.68900
H           7.79400        20.16900        23.99900
C           7.52600        23.28200        25.06400
O           8.16400        23.57300        26.31600
C           7.84300        24.91200        26.72200
O           8.55600        25.12100        27.95000
C           7.84300        24.72800        29.13100
C           8.41400        23.43400        29.68800
O           8.12000        22.38000        28.75900
H           8.10300        22.74800        27.82900
C           7.93700        22.98700        31.06000
O           8.76500        21.97300        31.64600
H           8.47600        21.77400        32.58300
C           7.19300        26.97700        29.89100
O           7.40700        27.77200        28.71500
H           7.55500        28.73600        28.93800
C           8.09500        25.79100        30.18900
O           7.72000        25.50900        31.54500
C           8.03900        24.18400        31.99200
O           7.30600        23.91000        33.19500
C           7.82400        24.24600        34.49000
C           7.35700        25.59200        35.01900
O           7.91900        26.60900        34.17700
H           7.99700        26.27800        33.23600
C           7.80900        25.95000        36.42600
O           7.06600        27.09600        36.86700
H           7.31500        27.30000        37.81400
C           8.26400        21.87500        35.24700
O           7.80200        21.12300        34.11600
H           7.78000        20.16800        34.41300
C           7.60000        23.20300        35.57200
O           8.30300        23.57900        36.76600
C           7.62500        24.72300        37.30400
O           8.40100        24.87900        38.50100
C           7.69100        24.64400        39.72600
C           8.30800        23.37100        40.28200
O           8.25000        22.27700        39.35600
H           8.58900        22.63400        38.48500
C           7.79900        23.00400        -0.39800
O           8.48600        21.90900         0.22400
H           8.11000        21.70000         1.12700
C           7.44400        27.15400        40.48800
O           7.57100        27.82600        39.22600
H           7.52300        28.80200        39.44200
C           7.96800        25.74900        -1.33000
O           7.38400        25.39900        -0.06700
C           7.88500        24.19800         0.53900
O           7.08700        24.12400         1.73000
C           3.86700        20.53100         0.18700
C           4.26900        19.18700        42.83600
O           4.02400        18.06100        41.98100
H           4.18800        18.42000        41.06300
C           3.78100        18.86800         2.17600
O           4.32300        17.67800         2.76800
H           3.86700        17.51100         3.64200
C           3.80700        22.98900         0.96800
O           4.32200        23.68300        -0.17800
H           4.10800        24.61400         0.11900
C           4.15000        21.54300         1.28500
O           3.44100        21.19700         2.48300
C           4.03000        20.04500         3.10500
O           3.42800        19.78100         4.38000
C           4.11400        20.07200         5.60700