# freq=raman b3lyp/6-31+g(2d,p) geom=connectivity

300 6989/6989.com

0 1
C           8.07000         7.80200         2.91300
C           7.72300         9.18700         3.43600
O           7.88000        10.22000         2.45200
H           7.46700         9.86100         1.61500
C           8.13000         9.59000         4.84400
O           7.46500        10.69400         5.47500
H           7.88500        10.84500         6.37000
C           8.27800         5.42200         3.81600
O           7.74100         4.78000         2.65100
H           7.79100         3.79600         2.81900
C           7.76800         6.83600         4.04700
O           8.53200         7.21100         5.20200
C           7.96400         8.39900         5.77200
O           8.84500         8.38300         6.90500
C           8.14700         8.31400         8.15700
C           8.64300         6.96200         8.64300
O           8.39400         5.98100         7.62600
H           8.67700         6.34700         6.73900
C           8.18100         6.52700        10.02400
O           8.70000         5.30000        10.55700
H           8.26400         5.04500        11.42000
C           7.93800        10.69100         8.96900
O           8.38800        11.39000         7.80000
H           8.09700        12.34000         7.91000
C           8.48600         9.30300         9.26000
O           7.89800         8.91000        10.50900
C           8.47000         7.67800        10.97400
O           7.68000         7.42900        12.14600
C           8.17400         7.72900        13.46000
C           7.72300         9.09700        13.94500
O           7.90100        10.08900        12.92400
H           7.48900         9.71400        12.09400
C           8.27700         9.47900        15.30800
O           7.80600        10.75700        15.76100
H           7.88600        10.85400        16.75300
C           8.45700         5.39100        14.15400
O           8.07300         4.65600        12.98300
H           8.39100         3.71100        12.91100
C           7.73000         6.68700        14.47500
O           8.17400         7.01700        15.79900
C           7.87000         8.34900        16.23800
O           8.54600         8.51900        17.49300
C           7.85400         8.13200        18.68900
C           8.37700         6.77300        19.12600
O           8.05800         5.74500        18.17800
H           8.42400         6.15200        17.34200
C           7.89300         6.39000        20.51500
O           8.59100         5.22200        20.97100
H           8.26900         5.01000        21.89300
C           7.48000        10.51900        19.43600
O           7.91100        11.28900        18.30400
H           8.00700        12.23500        18.61300
C           8.10700         9.17400        19.76600
O           7.59300         8.73900        21.03300
C           8.16900         7.51200        21.50300
O           7.48600         7.29200        22.74600
C           8.05200         7.80800        23.95900
C           7.51000         9.12900        24.48000
O           7.53500        10.11700        23.44000
H           7.09100         9.58700        22.71800
C           8.22600         9.50200        25.76900
O           7.57800        10.62200        26.39000
H           8.17700        10.91800        27.13400
C           8.62700         5.37400        24.54200
O           7.81600         4.56300        23.68000
H           8.05500         3.59200        23.69900
C           8.04200         6.70000        25.00000
O           8.83300         7.17400        26.09900
C           8.20900         8.31100        26.71400
O           9.07300         8.48900        27.84600
C           8.41600         8.24300        29.09800
C           8.91500         6.94100        29.70400
O           8.74900         5.86400        28.77000
H           8.95500         6.17900        27.84300
C           8.19300         6.69100        31.01700
O           8.60100         5.42500        31.55700
H           8.00000         5.29300        32.34600
C           8.35100        10.76400        29.75800
O           8.78900        11.44000        28.57000
H           8.89500        12.42300        28.72300
C           8.80000         9.34600        30.07100
O           8.17500         9.12900        31.34500
C           8.54100         7.86500        31.91800
O           7.74400         7.70900        33.10100
C           8.14100         7.87300        34.47000
C           7.81500         9.27300        34.96400
O           8.37300        10.21400        34.03500
H           8.22900        10.01400        33.06500
C           8.35300         9.51400        36.36500
O           7.76900        10.72400        36.86900
H           8.18900        10.86000        37.76600
C           8.10300         5.44200        34.99200
O           7.36800         4.78000        33.95300
H           7.57700         3.81400        34.10700
C           7.63000         6.81700        35.43600
O           8.19800         7.03200        36.73600
C           7.88300         8.34700        37.21800
O           8.71500         8.43400        38.38400
C           8.09000         8.27100        39.66500
C           8.44600         6.89100        40.19400
O           7.88900         5.88700        39.33200
H           8.11900         6.26900        38.43700
C           7.90800         6.56400        -0.48300
O           8.64400         5.48000         0.10200
H           8.49700         5.47400         1.09100
C           8.13600        10.65900        40.58000
O           8.45300        11.30000        39.33600
H           8.63700        12.26300        39.53400
C           8.55700         9.21400        -1.30500
O           7.89100         8.94200        -0.06300
C           8.19400         7.66800         0.52200
O           7.37200         7.52500         1.69000
C           3.77100         4.40800         0.16900
C           4.28500         3.06100        42.72500
O           3.96100         2.00200        41.81300
H           3.69800         2.39200        40.93000
C           3.70600         2.85700         2.05600
O           4.08000         1.58600         2.60800
H           4.02600         1.58900         3.60600
C           3.60000         6.83200         0.83800
O           4.28400         7.55000        -0.20000
H           4.06200         8.51400        -0.05400
C           4.17500         5.46800         1.18200
O           3.66900         5.12200         2.47900
C           4.23400         3.91500         3.01000
O           3.52600         3.87000         4.25700
C           4.29900         3.96800         5.46300
C           3.95100         5.33300         6.03300
O           4.14800         6.37800         5.06900
H           3.72400         5.91200         4.29300
C           4.71200         5.55600         7.33000
O           4.53200         6.88800         7.83200
H           4.86400         6.93400         8.77400
C           4.36500         1.59400         6.29300
O           3.82900         0.93600         5.13500
H           3.80900        -0.06400         5.15100
C           3.90400         3.01400         6.57800
O           4.41000         3.31800         7.88600
C           4.11300         4.63300         8.37900
O           4.74900         4.65500         9.66500
C           3.92600         4.37300        10.80700
C           4.24800         2.96200        11.27200
O           3.61100         2.10600        10.31400
H           3.76800         2.55200         9.43300
C           3.66900         2.52200        12.60700
O           4.09000         1.21700        13.03100
H           3.90900         1.15500        14.01300
C           4.09400         6.77000        11.68900
O           4.67300         7.39700        10.53500
H           4.48100         8.37800        10.50500
C           4.34700         5.29300        11.94200
O           3.52600         4.93700        13.06400
C           3.96300         3.66500        13.56400
O           3.25700         3.55100        14.80800
C           4.02200         3.73600        16.00800
C           3.66900         5.12000        16.52700
O           3.53800         6.17700        15.56600
H           3.32500         5.70300        14.71200
C           4.40800         5.32400        17.84000
O           4.36900         6.69700        18.25600
H           4.73700         6.65400        19.18500
C           4.20100         1.33700        16.64800
O           3.69000         0.53500        15.57300
H           3.95500        -0.42000        15.70300
C           3.59200         2.68000        17.01200
O           4.13700         2.95200        18.31200
C           3.77000         4.27300        18.73400
O           4.48600         4.33600        19.97600
C           3.70700         4.23200        21.17600
C           4.00000         2.87200        21.78800
O           3.55900         1.89600        20.83300
H           3.78300         2.15500        19.89300
C           3.46300         2.61500        23.18700
O           3.82200         1.28400        23.58400
H           3.51600         1.20000        24.53200
C           3.95200         6.64500        21.87900
O           4.51900         7.18900        20.67900
H           4.17400         8.12600        20.73100
C           4.25400         5.19400        22.21800
O           3.83100         5.01000        23.57700
C           4.08400         3.68600        24.06900
O           3.48100         3.67600        25.37100
C           4.24900         3.87900        26.56600
C           3.90100         5.29400        26.99800
O           4.53600         6.21200        26.09700
H           4.36900         5.89800        25.16300
C           4.32100         5.67300        28.40900
O           3.98700         7.00100        28.83800
H           4.09200         7.19300        29.81400
C           4.22700         1.57000        27.35800
O           3.68600         0.82200        26.25900
H           3.99300        -0.13000        26.28600
C           3.69200         2.96300        27.64500
O           4.34900         3.34100        28.86300
C           3.88000         4.59300        29.38300
O           4.63800         4.69500        30.59700
C           3.78100         4.39600        31.70900
C           4.12800         3.00800        32.22400
O           3.83300         2.01100        31.23500
H           3.99600         2.36500        30.31400
C           3.40600         2.75500        33.53700
O           3.66000         1.43700        34.04300
H           3.28500         1.31800        34.96300
C           3.74700         6.78000        32.52200
O           4.12200         7.51200        31.34700
H           4.05600         8.45000        31.68800
C           4.18000         5.35400        32.82000
O           3.59100         5.08200        34.09900
C           3.83800         3.75800        34.59500
O           2.99000         3.71600        35.75200
C           3.77300         3.84200        36.94800
C           3.54200         5.27300        37.40700
O           4.31700         6.16000        36.58700
H           4.06700         5.99500        35.63300
C           3.99400         5.59200        38.82300
O           3.65700         6.84600        39.43200
H           4.02500         6.91600        40.35900
C           3.60000         1.44300        37.87200
O           3.06700         0.82400        36.69200
H           3.49800        -0.07600        36.62200
C           3.30100         2.92200        38.06100
O           3.89500         3.26200        39.32200
C           3.56000         4.55500        39.84600
O           4.43100         4.67100        40.98100
C           8.06100        16.07700         2.71400
C           7.36800        17.34000         3.20100
O           7.43000        18.45800         2.30300
H           7.23000        18.08100         1.39900
C           7.86300        17.75200         4.57800
O           7.32200        18.99200         5.05800
H           7.63300        19.20700         5.98400
C           8.02100        13.60600         3.67200
O           8.11900        12.97000         2.38900
H           8.06800        11.97900         2.51400
C           7.64400        15.07500         3.77800
O           8.14700        15.47600         5.06000
C           7.59800        16.67800         5.62000
O           8.43900        16.84700         6.77000
C           7.84700        16.42300         8.00600
C           8.34300        15.10400         8.57800
O           8.01000        14.11600         7.59300
H           8.05200        14.55000         6.69300
C           7.91400        14.60300         9.94700
O           8.55600        13.43800        10.48400
H           8.06100        13.10200        11.28500
C           7.43100        18.72600         8.81300
O           7.71400        19.43200         7.59600
H           7.79800        20.41800         7.74100
C           8.08400        17.39500         9.15000
O           7.47400        16.97700        10.38000
C           7.99800        15.76000        10.93000
O           7.28100        15.46300        12.13600
C           7.77600        16.04600        13.35000
C           7.18800        17.34300        13.88300
O           7.36400        18.38100        12.90800
H           7.16100        17.88600        12.06300
C           7.78400        17.69900        15.23500
O           7.21000        18.85100        15.86900
H           7.72500        19.06400        16.69800
C           8.26000        13.51600        14.04100
O           7.50100        12.73100        13.11000
H           7.72300        11.79200        13.37200
C           7.79300        14.92300        14.37400
O           8.47700        15.51700        15.48700
C           7.73600        16.52100        16.19500
O           8.55600        16.74000        17.35200
C           8.11400        16.34200        18.65800
C           8.66000        15.03000        19.19700
O           8.57700        13.95400        18.25100
H           9.05200        14.28500        17.43500
C           8.01800        14.59900        20.50500
O           8.27800        13.30300        21.06300
H           7.86000        13.21400        21.96700
C           7.69000        18.72100        19.50300
O           8.41500        19.62900        18.66200
H           8.14000        20.56700        18.87600
C           8.35200        17.37500        19.74700
O           7.77600        16.93300        20.98500
C           8.26500        15.69800        21.52600
O           7.47900        15.58600        22.72200
C           8.20900        15.95600        23.90000
C           7.60500        17.26200        24.38900
O           7.73100        18.21800        23.32600
H           7.53400        17.70500        22.49000
C           8.15300        17.77500        25.71100
O           7.51000        18.88100        26.36100
H           8.04000        18.86400        27.20900
C           8.47000        13.59200        24.68400
O           7.74600        12.82100        23.71300
H           7.92400        11.86100        23.92700
C           8.04300        14.99900        25.06900
O           8.72000        15.42500        26.26000
C           8.10400        16.63800        26.71900
O           8.88700        16.95100        27.88000
C           8.25600        16.59400        29.11800
C           8.86200        15.29900        29.63300
O           8.80600        14.16000        28.76100
H           8.96900        14.44200        27.81600
C           8.25600        14.92900        30.97700
O           9.04300        13.87800        31.55400
H           8.61500        13.56900        32.40300
C           7.97900        19.11300        29.75100
O           8.78400        19.77000        28.76000
H           8.57900        20.73700        28.90700
C           8.44000        17.71500        30.12800
O           7.85900        17.37400        31.39600
C           8.39300        16.13700        31.88900
O           7.77100        15.80900        33.14000
C           8.41500        16.13500        34.38000
C           7.93500        17.48800        34.88000
O           8.27200        18.50100        33.92100
H           8.04400        18.12900        33.02100
C           8.46000        17.73400        36.28500
O           7.86100        18.91600        36.83600
H           8.30800        19.15200        37.69900
C           8.64100        13.72200        35.02200
O           8.20400        12.85000        33.96900
H           8.45400        11.88300        34.02100
C           8.01000        15.05900        35.37300
O           8.47300        15.23700        36.72000
C           8.12500        16.55100        37.17900
O           8.86800        16.74700        38.39100
C           8.17100        16.34400        39.57800
C           8.88900        15.12700        40.13900
O           8.62800        14.05400        39.22300
H           8.71600        14.46300        38.31400
C           8.19200        14.70800        -0.63600
O           8.87800        13.58700        -0.05900
H           8.49300        13.43700         0.85100
C           7.89100        18.87900        40.26600
O           8.52900        19.53600        39.16200
H           8.59800        20.49100        39.45300
C           8.25200        17.44800        -1.44500
O           7.55900        17.02300        -0.26300
C           8.29700        15.91700         0.27900
O           7.56500        15.57500         1.46500
C           3.76500        12.48500         0.37500
C           4.23000        11.14700        43.00100
O           3.95400        10.18600        41.97100
H           4.31600        10.59400        41.13300
C           3.57200        10.69900         2.23600
O           4.19500         9.44100         2.53700
H           3.88700         9.19500         3.45600
C           3.47700        14.92600         1.19900
O           3.47800        15.65900        -0.03500
H           3.63700        16.63300         0.12600
C           4.01800        13.52800         1.45100
O           3.53000        13.13300         2.74200
C           3.88100        11.82300         3.21100
O           3.11500        11.72600         4.42100
C           3.84900        12.04400         5.61200
C           3.62200        13.46900         6.09000
O           3.77900        14.44200         5.04700
H           3.43700        14.08300         4.17900
C           4.27800        13.75900         7.43000
O           4.04100        15.08700         7.91900
H           4.40400        15.28900         8.82800
C           3.98500         9.68700         6.30300
O           3.50600         8.95000         5.16800
H           3.71500         8.00700         5.42400
C           3.41900        11.04800         6.67600
O           4.08500        11.34100         7.91300
C           3.74600        12.66700         8.34400
O           4.44600        12.79800         9.59000
C           3.89600        12.45200        10.86900
C           4.22900        11.05400        11.36500
O           3.91900        10.07300        10.36600
H           4.01200        10.56900         9.50200
C           3.44300        10.70200        12.61700
O           3.71400         9.38300        13.11500
H           3.60500         9.21400        14.09400
C           3.54900        14.85600        11.63300
O           4.11100        15.60600        10.54700
H           3.93100        16.56300        10.77800
C           4.17300        13.50300        11.93100
O           3.57500        13.02900        13.14700
C           3.85200        11.72100        13.66800
O           3.06800        11.67300        14.86900
C           3.83900        11.81000        16.07100
C           3.49800        13.19400        16.59900
O           3.70200        14.22400        15.62100
H           3.42300        13.89300        14.71900
C           4.09800        13.53400        17.95300
O           3.73100        14.79800        18.52600
H           4.11300        14.82900        19.44900
C           3.74700         9.35900        16.88300
O           3.42600         8.85300        15.58000
H           3.52300         7.86200        15.66800
C           3.43300        10.82200        17.15200
O           4.06000        11.09900        18.41200
C           3.75200        12.40800        18.91400
O           4.64700        12.39700        20.03500
C           4.06100        12.28500        21.34000
C           4.40300        10.90100        21.86700
O           4.17200         9.84900        20.91900
H           4.26500        10.18700        19.98200
C           3.66100        10.72800        23.18200
O           4.09600         9.45400        23.68000
H           3.69200         9.29700        24.58200
C           3.98300        14.78300        22.06500
O           4.44300        15.54400        20.93800
H           4.30000        16.49500        21.21300
C           4.55300        13.38900        22.26300
O           4.14600        13.14400        23.61700
C           4.16200        11.80500        24.13200
O           3.39300        11.69400        25.33900
C           4.06700        12.06100        26.55100
C           3.84400        13.47600        27.05900
O           4.24300        14.43000        26.06400
H           4.02800        14.02600        25.17500
C           4.51600        13.65700        28.41100
O           4.45600        14.98000        28.96300
H           4.77100        14.99300        29.91200
C           4.03700         9.68200        27.41500
O           3.60200         8.80400        26.36700
H           3.91000         7.90000        26.66300
C           3.55500        11.10900        27.62100
O           4.23400        11.34800        28.86200
C           4.09300        12.64400        29.46300
O           4.98500        12.69700        30.58500
C           4.36200        12.51000        31.86500
C           4.61200        11.15000        32.49600
O           4.78200        10.07600        31.56100
H           5.12800        10.46900        30.70800
C           3.78400        10.77000        33.71300
O           3.95300         9.47200        34.30000
H           3.55000         9.46800        35.21500
C           4.12800        14.84300        32.48800
O           4.86600        15.50500        31.45100
H           4.44800        16.41400        31.45100
C           4.61900        13.49600        32.99200
O           3.86800        13.19800        34.17800
C           4.17800        11.88600        34.66700
O           3.60600        11.94600        35.98100
C           4.36300        12.08700        37.19200
C           4.33400        13.53200        37.66400
O           4.78400        14.44300        36.65000
H           4.16000        14.33800        35.87600
C           4.70700        13.75300        39.12000
O           4.51500        15.12900        39.48100
H           4.21500        15.27400        40.42400
C           4.17700         9.70400        37.97300
O           3.85900         8.98900        36.77000
H           3.88800         8.01000        36.97000
C           3.72800        11.13900        38.19700
O           4.26600        11.37700        39.50600
C           3.96600        12.71100        39.94200
O           4.55300        12.69300        41.25200
C           8.02800        24.23800         2.89800
C           7.42900        25.52300         3.44500
O           7.79400        26.51900         2.47900
H           7.95800        26.04500         1.61400
C           7.86800        25.92700         4.84300
O           7.20900        27.12600         5.27600
H           7.63000        27.46300         6.11700
C           8.03000        21.78000         3.68600
O           7.52900        21.10900         2.52100
H           7.68300        20.13500         2.68300
C           7.67400        23.22900         3.97800
O           8.18200        23.53100         5.28600
C           7.58300        24.74600         5.75800
O           8.34500        25.03200         6.94000
C           7.79100        24.58300         8.18600
C           8.41600        23.30900         8.73000
O           8.22300        22.30600         7.72300
H           8.50600        22.67700         6.83800
C           7.91600        22.86300        10.09500
O           8.67700        21.73500        10.55100
H           8.38500        21.51600        11.48100
C           7.15700        26.90400         8.67300
O           8.01200        27.73600         7.87600
H           7.81200        28.70200         8.04100
C           7.84700        25.67500         9.24100
O           7.40100        25.19500        10.51800
C           8.04600        24.03300        11.05700
O           7.26100        23.67900        12.20500
C           7.74000        24.00800        13.51700
C           7.08700        25.29200        14.00300
O           7.24500        26.32300        13.01800
H           7.09400        25.98500        12.08900
C           7.76200        25.70100        15.30200
O           7.28200        26.96200        15.79000
H           7.68500        27.16400        16.68300
C           8.00700        21.63000        14.24700
O           7.65300        20.98100        13.01700
H           7.70800        19.99600        13.18100
C           7.50400        23.01000        14.63800
O           8.03000        23.39200        15.91700
C           7.45000        24.63500        16.33900
O           8.24500        24.94300        17.49300
C           7.76300        24.61200        18.80400
C           8.47400        23.38200        19.34500
O           8.47000        22.30500        18.39800
H           8.54500        22.57700        17.43900
C           7.87900        22.93700        20.67100
O           8.35300        21.66100        21.12600
H           7.75800        21.43400        21.89600
C           7.62000        27.07000        19.54700
O           8.07900        27.73400        18.36000
H           7.83900        28.70500        18.37200
C           8.14000        25.67000        19.82800
O           7.58400        25.33000        21.10600
C           8.12700        24.10300        21.61400
O           7.27500        23.83800        22.73700
C           7.93700        24.16200        23.96800
C           7.42900        25.47400        24.54400
O           7.57600        26.56200        23.61900
H           7.52300        26.22300        22.68000
C           7.95400        25.95900        25.88600
O           7.43100        27.16500        26.46000
H           7.86000        27.19900        27.36300
C           8.14400        21.73900        24.72100
O           7.69500        20.97100        23.59500
H           8.06700        20.06900        23.81100
C           7.75800        23.16000        25.09700
O           8.41700        23.56400        26.30600
C           7.86200        24.77700        26.83700
O           8.52700        25.05000        28.07900
C           7.93700        24.71500        29.34400
C           8.58400        23.45200        29.88900
O           8.65800        22.39300        28.92400
H           8.82400        22.76100        28.00900
C           8.06500        22.95200        31.22800
O           8.64800        21.75600        31.76600
H           8.34700        21.75200        32.71900
C           7.38600        27.05300        30.02200
O           8.02700        27.78400        28.96600
H           8.27300        28.70400        29.27200
C           8.13500        25.78700        30.40300
O           7.52500        25.28500        31.60100
C           8.21100        24.15100        32.15200
O           7.52200        23.81900        33.36700
C           8.05800        24.30400        34.60600
C           7.40700        25.58100        35.11400
O           7.46100        26.57400        34.08000
H           7.24300        26.16900        33.19200
C           7.82400        25.97800        36.52000
O           7.14900        27.14700        37.00700
H           7.46100        27.45500        37.90600
C           8.23000        21.78100        35.35600
O           7.96900        21.21400        34.06400
H           8.19800        20.24300        34.00300
C           7.71400        23.19300        35.58400
O           8.20800        23.55500        36.88200
C           7.59900        24.75200        37.38900
O           8.48100        24.88100        38.51400
C           7.92800        24.52600        39.79000
C           8.66000        23.26800        40.23000
O           8.72300        22.21400        39.25700
H           8.89700        22.67900        38.38900
C           8.15800        22.81400        -0.47000
O           8.39300        21.52000         0.10400
H           7.88400        21.54000         0.96500
C           7.70600        26.90800        40.53400
O           7.99700        27.69000        39.36600
H           8.04200        28.66000        39.60700
C           8.41300        25.58800        -1.30500
O           8.05700        25.23000         0.03800
C           8.45800        23.93600         0.51100
O           7.56800        23.76600         1.62300
C           3.80200        20.72800         0.28400
C           4.14600        19.29700        42.74100
O           3.64500        18.34400        41.79300
H           3.93200        18.69200        40.90000
C           3.47700        19.03400         2.02100
O           3.91100        17.74300         2.47100
H           3.50600        17.53000         3.36000
C           3.66000        23.09000         1.02700
O           4.11800        23.76900        -0.15100
H           3.83100        24.72600        -0.11600
C           4.22000        21.71700         1.36100
O           3.64400        21.39100         2.63400
C           3.91700        20.04900         3.06300
O           3.10400        19.91900         4.23800
C           3.76100        20.13100         5.49600