# freq=raman b3lyp/6-31+g(2d,p) geom=connectivity
350 10000.com
350 10000.com
C           8.31400         7.90300         2.96500
0 1
O           7.99700        10.29100         2.41300
H           7.77200         9.96000         1.49600
C           8.04300         9.57700         4.77500
O           7.50000        10.82100         5.24100
H           7.78300        10.95200         6.19100
C           8.24900         5.43900         3.76900
O           7.99500         4.82200         2.49900
H           8.12300         3.83800         2.62200
C           7.77200         6.87200         3.94200
O           8.30300         7.21500         5.23000
C           7.72400         8.43200         5.72300
O           8.46400         8.59700         6.94100
C           7.86800         8.22900         8.19300
C           8.58100         6.99600         8.72400
O           8.33200         5.88500         7.85000
H           8.32200         6.41300         7.00100
C           8.15700         6.61600        10.13300
O           8.93600         5.57000        10.73000
H           8.76200         5.52100        11.71400
C           7.58100        10.69800         8.98100
O           7.88600        11.42200         7.78000
H           7.92400        12.39800         7.99200
C           8.14100         9.30700         9.22900
O           7.68200         8.97000        10.54700
C           8.29000         7.78900        11.09000
O           7.57500         7.50400        12.30100
C           8.14200         7.92900        13.54800
C           7.72900         9.31700        14.01100
O           8.21300        10.24500        13.02900
H           7.74800         9.98200        12.18300
C           8.13800         9.62000        15.44300
O           7.45600        10.78100        15.94000
H           7.75400        10.89800        16.88800
C           7.88000         5.47800        14.28700
O           9.01000         5.09800        13.48900
H           9.19600         4.15200        13.75200
C           7.71200         6.95000        14.62800
O           8.46400         7.26900        15.80800
C           7.85000         8.44300        16.36000
O           8.61600         8.68000        17.55000
C           8.10600         8.31500        18.84100
C           8.64800         6.98500        19.33900
O           8.38400         5.90600        18.43000
H           8.23400         6.21700        17.49100
C           8.22100         6.73200        20.77500
O           8.57000         5.45700        21.33400
H           8.42800         5.43900        22.32400
C           8.28400        10.75000        19.68800
O           8.41800        11.31300        18.37500
H           8.33000        12.30900        18.38600
C           8.68200         9.29200        19.85300
O           8.25500         9.01000        21.19300
C           8.74900         7.78000        21.74200
O           7.90700         7.72700        22.90400
C           8.41200         8.10600        24.19300
C           8.08200         9.51600        24.65600
O           8.57700        10.41100        23.65000
H           8.44700         9.88300        22.81100
C           8.60500         9.82700        26.04900
O           7.96400        10.94800        26.67400
H           8.45400        10.99800        27.54500
C           8.32100         5.63100        24.96100
O           7.89900         4.97200        23.75900
H           8.01700         3.98000        23.80700
C           8.04900         7.09500        25.26800
O           8.94200         7.41500        26.34500
C           8.37100         8.60100        26.91600
O           9.21500         8.75300        28.06700
C           8.59100         8.35500        29.29600
C           9.11200         7.00100        29.75300
O           8.74500         6.00900        28.78300
H           8.99700         6.38100        27.88900
C           8.61700         6.69200        31.15700
O           9.31900         5.61000        31.78600
H           8.81700         5.36700        32.61600
C           8.45400        10.80100        30.06200
O           9.42700        11.48400        29.25800
H           9.27900        12.47200        29.28800
C           8.81600         9.36600        30.40900
O           8.12100         8.93700        31.58900
C           8.75100         7.79700        32.19200
O           8.01900         7.64900        33.41700
C           8.60500         7.93700        34.69500
C           8.09700         9.32000        35.06700
O           8.78300        10.20800        34.17200
H           8.44300         9.92500        33.27500
C           8.51100         9.73200        36.47100
O           7.94700        10.95000        36.97800
H           8.35100        11.16200        37.86700
C           8.54000         5.54500        35.66600
O           8.35900         4.99900        34.35200
H           8.45600         4.00800        34.25900
C           8.06200         6.98500        35.74900
O           8.62700         7.31200        37.02700
C           8.14300         8.60400        37.42100
O           8.91900         8.65200        38.62800
C           8.18300         8.26100        39.79600
C           8.89600         7.02300        40.31600
O           8.79400         5.96600        39.35100
H           9.03400         6.42800        38.49700
C           8.29100         6.48500        -0.44100
O           8.75300         5.20900         0.02500
H           8.61800         5.15800         1.01400
C           7.78500        10.77500        40.54500
O           8.43400        11.55500        39.53100
H           8.67100        12.47200        39.85200
C           8.26000         9.36100        -1.20800
O           7.64300         8.76200        -0.05900
C           8.46400         7.70200         0.45300
O           7.79300         7.46900         1.70000
C           4.17700         4.44400         0.46500
C           4.62800         3.11000         1.03800
O           4.51900         2.00700         0.12700
H           4.56600         2.37900        -0.80000
C           3.98300         2.79600         2.37800
O           4.52800         1.56200         2.86800
H           4.23000         1.39600         3.80800
C           4.60200         6.87400         0.96400
O           3.42700         7.37300         0.30900
H           3.48700         8.37000         0.34600
C           4.64900         5.45200         1.50000
O           4.02900         5.25100         2.77800
C           4.31600         3.95000         3.31000
O           3.62500         3.78800         4.55700
C           4.30200         4.15300         5.76900
C           3.76200         5.48200         6.27100
O           4.18200         6.51300         5.36500
H           3.98300         6.11100         4.47100
C           4.31100         5.70100         7.67200
O           3.62700         6.76300         8.35200
H           3.94700         6.73500         9.30000
C           4.42400         1.64000         6.27300
O           3.66000         0.82700         5.37000
H           3.65000        -0.12000         5.69100
C           4.04700         3.02900         6.76100
O           4.61500         3.34900         8.03900
C           4.07300         4.54100         8.62500
O           4.71300         4.57200         9.90900
C           4.02800         4.26900        11.13300
C           4.43300         2.86000        11.53500
O           4.32000         1.94600        10.43500
H           4.87400         2.34900         9.70600
C           3.69300         2.56000        12.82800
O           4.15700         1.26700        13.24400
H           4.21600         1.12400        14.23100
C           4.16500         6.63600        11.89300
O           4.46400         7.39600        10.71300
H           4.16200         8.31800        10.95700
C           4.57500         5.20500        12.19900
O           4.00100         4.81500        13.45500
C           4.21700         3.47600        13.92300
O           3.38500         3.39300        15.08900
C           4.02300         3.74400        16.32600
C           3.57000         5.11000        16.81300
O           3.82100         6.12100        15.82600
H           3.73100         5.68900        14.92900
C           4.29100         5.56400        18.07200
O           3.83600         6.84200        18.54200
H           3.98500         6.98200        19.52000
C           3.90600         1.39700        17.21600
O           3.79400         0.80100        15.91600
H           4.05300        -0.15500        16.05800
C           3.57200         2.85700        17.47600
O           4.21200         3.15900        18.72400
C           3.99400         4.51700        19.13300
O           4.89100         4.67900        20.24000
C           4.29000         4.34000        21.49800
C           4.62200         2.96300        22.05100
O           4.45600         2.02600        20.97700
H           4.62400         2.53500        20.13300
C           3.88100         2.68200        23.34800
O           4.30100         1.41500        23.87300
H           4.13000         1.25000        24.84400
C           4.13800         6.79700        22.24800
O           4.25500         7.49600        21.00000
H           4.07300         8.46300        21.18200
C           4.56700         5.37600        22.57500
O           4.02000         5.09000        23.87000
C           4.23500         3.75800        24.36100
O           3.41700         3.70200        25.53800
C           4.15400         3.95200        26.74400
C           3.93800         5.34500        27.31200
O           4.43400         6.31600        26.38000
H           4.24500         5.99200        25.45300
C           4.43800         5.68000        28.70800
O           3.86600         6.88800        29.23100
H           3.75200         6.84700        30.22400
C           4.23000         1.57800        27.43700
O           3.80000         0.82600        26.29300
H           3.86200        -0.16200        26.43300
C           3.67300         2.95000        27.78100
O           4.27000         3.24600        29.05100
C           3.97400         4.53900        29.59900
O           4.81900         4.59800        30.75700
C           4.17200         4.20700        31.97700
C           4.52600         2.78500        32.38000
O           3.89800         1.84800        31.49200
H           3.96600         2.08800        30.52300
C           4.01100         2.46500        33.77400
O           4.60000         1.30100        34.37100
H           4.15200         1.11300        35.24500
C           4.71500         6.63500        32.83000
O           3.68100         7.32500        32.11400
H           3.74200         8.32200        32.16200
C           4.62400         5.14000        33.08900
O           3.95200         4.80200        34.31100
C           4.38700         3.52400        34.79800
O           3.70800         3.41400        36.05700
C           4.42500         3.82000        37.23200
C           4.15200         5.23800        37.70500
O           4.64300         6.14000        36.70300
H           3.97900         6.08100        35.95800
C           4.56600         5.57300        39.12900
O           3.83800         6.74800        39.51300
H           3.85200         6.80200        40.51100
C           4.65400         1.34400        38.18800
O           4.24200         0.75200        36.94700
H           4.40300        -0.22700        37.07400
C           4.21500         2.79200        38.33200
O           4.79400         3.23900        39.56600
C           4.11400         4.42100        40.01200
O           4.82400         4.63100        41.24100
C           8.44300        16.15700         2.98700
C           7.88900        17.51000         3.40400
O           8.36200        18.49200         2.47000
H           8.28900        18.01600         1.59400
C           8.15000        17.74400         4.88300
O           7.29900        18.85000         5.21300
H           7.31700        18.88100         6.21300
C           8.46500        13.64800         3.63200
O           7.80200        12.90100         2.60200
H           7.78700        11.94200         2.88500
C           8.03000        15.06700         3.96200
O           8.52700        15.37000         5.27400
C           7.88500        16.54800         5.78300
O           8.66800        16.87400         6.94000
C           8.05300        16.52000         8.18700
C           8.55500        15.18100         8.70300
O           8.65700        14.13700         7.72400
H           9.06500        14.56300         6.91700
C           7.89000        14.80300        10.01600
O           8.41800        13.58400        10.55700
H           8.01800        13.26100        11.41500
C           7.48200        18.85900         9.03200
O           7.88000        19.56100         7.84500
H           7.74700        20.53000         8.05000
C           8.11800        17.51200         9.33700
O           7.44900        17.14600        10.55200
C           7.94200        15.90100        11.06600
O           7.18300        15.56900        12.23800
C           7.91000        15.91600        13.42600
C           7.27000        17.18600        13.96400
O           7.51900        18.24100        13.02400
H           7.28600        17.96900        12.09100
C           7.66300        17.62700        15.36500
O           7.07800        18.78300        15.98200
H           7.39300        18.81200        16.93100
C           8.29600        13.53500        14.25300
O           7.75800        12.84200        13.11700
H           7.78100        11.88100        13.39400
C           7.61900        14.87400        14.49400
O           8.05300        15.30200        15.79300
C           7.54400        16.50600        16.38400
O           8.56400        16.66900        17.38000
C           8.10400        16.36000        18.70400
C           8.66400        15.06500        19.26900
O           8.40000        13.98200        18.36500
H           8.57900        14.09400        17.38800
C           8.16800        14.66500        20.64900
O           8.85600        13.50900        21.14900
H           8.37700        13.28700        21.99800
C           7.98900        18.96700        19.41100
O           8.36600        19.47600        18.12400
H           8.23100        20.46700        18.12900
C           8.33900        17.51100        19.66900
O           7.81300        17.04500        20.92000
C           8.36800        15.87800        21.54200
O           7.54900        15.76100        22.71400
C           8.14200        16.14600        23.96300
C           7.33200        17.28200        24.56500
O           7.21400        18.37800        23.64600
H           6.95600        17.87100        22.82400
C           7.90900        17.77200        25.88300
O           7.24200        18.89400        26.48000
H           7.91800        19.25500        27.12200
C           8.54400        13.65500        24.73500
O           7.97000        12.84200        23.70100
H           8.26400        11.91600        23.93700
C           7.90300        15.01700        24.95100
O           8.56600        15.42100        26.15800
C           7.94300        16.55000        26.78700
O           8.70500        16.95200        27.93500
C           8.27100        16.48600        29.22100
C           9.01400        15.23900        29.67300
O           8.75900        14.11100        28.82300
H           9.04600        14.39200        27.90800
C           8.54500        14.86300        31.06900
O           9.07600        13.59500        31.48100
H           8.73500        13.57400        32.42000
C           8.04000        18.96500        30.07100
O           8.27800        19.56500        28.79000
H           8.13200        20.52800        29.01600
C           8.54300        17.54500        30.27700
O           7.93700        17.16300        31.52000
C           8.68500        16.04400        32.01600
O           8.10200        15.64200        33.26500
C           8.46900        15.97200        34.61200
C           7.76900        17.21900        35.12600
O           7.84000        18.19800        34.07900
H           7.50500        17.74600        33.25200
C           8.43000        17.69400        36.41000
O           8.04900        18.94900        36.99200
H           8.60000        19.18900        37.79100
C           8.73800        13.56000        35.33700
O           8.31500        12.96400        34.10300
H           8.23900        11.97300        34.20700
C           8.25300        14.95000        35.71700
O           8.79600        15.26700        37.00600
C           8.40600        16.57800        37.44100
O           9.23800        16.89600        38.56600
C           8.60600        16.50600        39.79400
C           8.95300        15.10800        40.28100
O           8.43000        14.10500        39.39900
H           8.50000        14.41900        38.45200
C           8.48500        14.78200        -0.35500
O           9.00300        13.55100         0.17200
H           8.44300        13.32800         0.97000
C           8.34100        18.96200        40.57000
O           8.68100        19.67100        39.37000
H           8.58800        20.66000        39.49200
C           8.86800        17.56400        -1.19700
O           8.18400        17.18000         0.00500
C           8.65600        15.95900         0.59200
O           7.80200        15.85400         1.74000
C           3.86200        12.54800         0.57400
C           4.25600        11.21500         1.19100
O           4.00500        10.26400         0.14700
H           4.38300        10.60900        -0.71200
C           3.38600        10.88200         2.39200
O           3.49100         9.48700         2.71500
H           3.26000         9.31100         3.67100
C           3.95800        15.03800         1.29600
O           4.46500        15.57900         0.06700
H           4.40700        16.57700         0.10500
C           4.12800        13.57300         1.66300
O           3.46300        13.27700         2.90000
C           3.84000        11.96900         3.35300
O           3.03400        11.67000         4.50200
C           3.65000        11.94300         5.77000
C           3.45700        13.36400         6.27300
O           3.72800        14.40700         5.32400
H           3.44400        14.02000         4.44700
C           4.31800        13.53800         7.51300
O           4.67400        14.88400         7.86200
H           4.45500        15.04000         8.82500
C           3.71000         9.64400         6.41600
O           3.07400         8.94500         5.33700
H           3.35800         7.99100         5.43100
C           3.23600        11.00700         6.89300
O           4.01200        11.29300         8.06600
C           3.75800        12.60900         8.57800
O           4.47500        12.54200         9.82000
C           3.67000        12.27300        10.97700
C           4.01700        10.89800        11.52500
O           3.38500         9.98800        10.61400
H           3.50000        10.31800         9.67700
C           3.51400        10.57000        12.92200
O           4.16100         9.40500        13.45400
H           4.00300         9.30400        14.43600
C           3.41000        14.53000        11.73400
O           3.90200        15.35000        10.66400
H           3.39900        16.21000        10.74600
C           4.07800        13.21400        12.09900
O           3.45700        12.86800        13.34500
C           3.96500        11.64500        13.89700
O           3.35500        11.86900        15.17700
C           4.12400        12.05600        16.37400
C           3.79100        13.45100        16.87400
O           4.29700        14.37300        15.89700
H           4.01500        13.86100        15.08600
C           4.41800        13.81300        18.21100
O           4.13200        15.15200        18.64100
H           4.36500        15.29700        19.60300
C           4.27000         9.66500        17.31200
O           3.65300         8.87900        16.28100
H           3.46400         7.93900        16.56200
C           3.68400        11.06200        17.43600
O           4.17000        11.41800        18.73800
C           3.85100        12.75700        19.14500
O           4.61600        12.76600        20.36000
C           3.85000        12.48400        21.54000
C           4.17800        11.11600        22.11600
O           3.88200        10.06600        21.18500
H           3.92300        10.49200        20.28100
C           3.54300        10.82200        23.46600
O           3.78800         9.57500        24.13100
H           3.50200         9.69700        25.08200
C           3.90700        14.91800        22.30300
O           4.34700        15.62500        21.13400
H           3.92000        16.52900        21.17800
C           4.22700        13.47000        22.63400
O           3.66300        13.24800        23.93500
C           3.91600        11.92800        24.43900
O           3.14300        11.80100        25.64100
C           3.74200        12.14600        26.89900
C           3.60200        13.58400        27.37100
O           4.02600        14.48000        26.33300
H           4.27300        14.00600        25.48700
C           4.23900        13.86900        28.72100
O           3.93600        15.17400        29.23400
H           4.13700        15.20200        30.21400
C           3.80600         9.71200        27.75500
O           3.56300         8.93100        26.57600
H           3.68500         7.96300        26.79600
C           3.29500        11.13200        27.94000
O           3.79900        11.43400        29.24900
C           3.69400        12.80400        29.66000
O           4.59200        12.72000        30.77600
C           4.09400        12.58100        32.11400
C           4.36000        11.14600        32.53900
O           4.39200        10.09600        31.56100
H           4.23700        10.49900        30.66000
C           3.63500        10.91300        33.85400
O           3.72900         9.53400        34.24000
H           3.52200         9.40200        35.20900
C           4.70200        14.77000        32.78500
O           3.39000        15.34200        32.68300
H           3.46000        16.30700        32.93300
C           4.86300        13.31600        33.19900
O           4.11900        13.14100        34.41300
C           4.36400        11.79700        34.85200
O           3.62100        11.85800        36.07900
C           4.24100        12.01300        37.36400
C           4.20400        13.45200        37.85200
O           4.76900        14.33800        36.87500
H           4.58400        14.00900        35.94900
C           4.71000        13.56600        39.28100
O           4.28200        14.88300        39.65600
H           4.48900        15.06500        40.61800
C           4.25800         9.58100        37.93300
O           3.62600         8.88900        36.84700
H           3.89200         7.92600        36.89600
C           3.83300        10.96800        38.38900
O           4.17900        11.20100        39.76200
C           4.09100        12.55400        40.23100
O           4.75400        12.67000        41.49800
C           8.17200        24.12500         3.13200
C           7.74100        25.50700         3.59400
O           8.11200        26.59000         2.72700
H           7.81800        26.32600         1.80900
C           8.36300        25.71600         4.96500
O           8.10000        26.96900         5.61300
H           8.68000        26.98600         6.42800
C           8.00400        21.68400         3.94900
O           7.65900        21.01200         2.72900
H           7.70700        20.01400         2.76500
C           7.66900        23.14800         4.18200
O           8.24100        23.42900         5.46800
C           7.89800        24.71400         6.00800
O           8.69500        24.77500         7.19900
C           7.96800        24.60200         8.42400
C           8.21900        23.16300         8.84500
O           7.65500        22.24400         7.89800
H           8.12800        22.33500         7.02200
C           7.73600        22.83500        10.24800
O           8.37400        21.62400        10.67600
H           7.96800        21.30700        11.53300
C           8.16600        26.94900         9.18400
O           8.78400        27.71000         8.13700
H           8.58200        28.67800         8.29000
C           8.47900        25.50400         9.53700
O           7.74900        25.21100        10.73700
C           8.09300        23.91700        11.25400
O           7.29700        23.70200        12.42800
C           7.82700        23.92800        13.74300
C           7.47500        25.36100        14.10800
O           7.72100        26.44300        13.19800
H           7.48900        26.09400        12.29000
C           7.94500        25.63400        15.52800
O           7.43600        26.86400        16.06400
H           7.92200        27.14200        16.89300
C           7.55300        21.54400        14.52100
O           7.17200        20.86100        13.31900
H           7.37900        19.89000        13.44400
C           7.21800        23.00300        14.78500
O           7.93200        23.20300        16.01400
C           7.56500        24.51000        16.47800
O           8.49500        24.61300        17.56600
C           8.05900        24.33800        18.90500
C           8.45100        22.92500        19.30400
O           8.08900        21.92100        18.34400
H           8.11400        22.27200        17.40800
C           8.04800        22.65700        20.74500
O           8.80700        21.57600        21.30700
H           8.52200        21.46900        22.26000
C           8.11200        26.75800        19.56400
O           8.71200        27.43000        18.44600
H           8.44800        28.39200        18.51700
C           8.49500        25.34200        19.96000
O           7.82400        25.04200        21.19200
C           8.29900        23.79500        21.72100
O           7.31900        23.72400        22.76700
C           7.73600        24.10600        24.08600
C           7.19200        25.45300        24.53600
O           7.30200        26.53200        23.59700
H           7.33000        26.13100        22.68100
C           7.70300        25.87900        25.90300
O           6.98700        27.06700        26.27300
H           7.50200        27.39400        27.06500
C           8.06200        21.69300        24.79200
O           7.32800        21.10800        23.70600
H           6.99500        20.19900        23.95600
C           7.58200        23.07800        25.19400
O           8.17900        23.53400        26.41700
C           7.58700        24.74500        26.90900
O           8.46300        25.07400        27.99600
C           7.97900        24.72200        29.30000
C           8.55000        23.39700        29.77800
O           8.25100        22.35100        28.84200
H           8.38600        22.70700        27.91700
C           8.04700        23.02400        31.16300
O           8.55400        21.75600        31.60200
H           8.02000        21.41500        32.37500
C           7.43600        27.03900        29.85400
O           7.81600        27.72400        28.65100
H           7.69200        28.70800        28.77700
C           8.23800        25.83000        30.30800
O           7.88900        25.45800        31.64900
C           8.39900        24.18700        32.07700
O           7.72300        23.84600        33.29500
C           8.30900        24.28900        34.52800
C           7.86300        25.64300        35.05400
O           8.37300        26.66800        34.18900
H           8.15400        26.49700        33.22800
C           8.41400        25.83000        36.45800
O           8.01200        27.07700        37.04300
H           8.47100        27.17000        37.92700
C           8.62500        21.83800        35.26300
O           8.09300        20.86700        34.34900
H           8.15200        19.97400        34.79400
C           7.95400        23.18000        35.50600
O           8.30900        23.42700        36.87400
C           7.95200        24.71900        37.38700
O           8.72700        24.78900        38.59300
C           8.06300        24.52300        39.83800
C           8.60200        23.21200        40.38700
O           8.20400        22.25100        39.39800
H           8.32100        22.63700        38.48300
C           8.11200        22.85500        -0.26400
O           8.97800        21.86200         0.30500
H           8.70700        21.69000         1.25200
C           7.90800        27.03400        40.50700
O           8.84200        27.75900        39.69200
H           8.60800        28.73100        39.67700
C           8.38900        25.62800        -1.22200
O           7.86700        25.33100         0.08100
C           8.30900        24.07700         0.61900
O           7.63600        23.77100         1.84900
C           3.88200        20.69300         0.32900
C           4.14300        19.30200        42.92500
O           4.11100        18.23000        41.97100
H           4.51100        18.53700        41.10800
C           3.29200        19.01100         2.10900
O           3.54600        17.71400         2.66800
H           3.18300        17.56400         3.58700
C           3.94000        23.03800         1.22500
O           4.46100        23.72500         0.07800
H           4.09300        24.65100         0.16000
C           4.28600        21.58300         1.49300
O           3.40300        21.34200         2.59900
C           3.67700        20.04700         3.15300
O           2.83600        20.01700         4.31500
C           3.48000        20.24200         5.57800
C           3.40200        21.67700         6.07500