# freq=raman b3lyp/6-31+g(2d,p) geom=connectivity

300 8972/8972.com

0 1
C           7.99200         7.84400         2.88900
C           7.56600         9.17600         3.48500
O           7.49400        10.29100         2.58400
H           7.33600         9.88900         1.68200
C           8.15700         9.48500         4.85000
O           7.92200        10.79700         5.38100
H           8.41200        10.92800         6.24300
C           8.29000         5.46600         3.70000
O           7.83400         4.72400         2.55900
H           7.96100         3.77000         2.82800
C           7.61900         6.80900         3.93800
O           8.20800         7.11900         5.20900
C           7.82000         8.36000         5.81600
O           8.67300         8.56000         6.95200
C           8.11200         8.28200         8.24300
C           8.71300         6.94700         8.65200
O           8.60200         5.94300         7.63200
H           8.54400         6.47500         6.78700
C           8.21000         6.55900        10.03200
O           8.62200         5.28800        10.55600
H           8.26800         5.02600        11.45400
C           8.22200        10.63100         9.03700
O           8.76800        11.41300         7.96500
H           8.57300        12.38900         8.06000
C           8.67300         9.20500         9.31200
O           8.03600         8.95900        10.57500
C           8.42400         7.66300        11.05400
O           7.61300         7.40000        12.20800
C           8.05000         7.87800        13.48900
C           7.49700         9.23200        13.90000
O           7.68300        10.21600        12.87200
H           7.47300         9.90500        11.94500
C           8.00700         9.72600        15.24400
O           7.47400        10.88300        15.90400
H           7.90500        11.05600        16.79000
C           8.33400         5.54900        14.41400
O           7.76600         4.74600        13.36800
H           8.06700         3.79400        13.32200
C           7.71800         6.92300        14.62400
O           8.37100         7.33100        15.83500
C           7.79800         8.58600        16.22800
O           8.51700         8.88700        17.43300
C           8.06200         8.47200        18.72900
C           8.55600         7.13600        19.26000
O           8.10600         6.02300        18.47400
H           8.36500         6.31200        17.55200
C           8.21400         6.81000        20.70500
O           9.09900         5.76600        21.13400
H           8.58300         5.34500        21.88100
C           7.51600        10.85100        19.42800
O           7.95800        11.58300        18.27600
H           7.98800        12.55000        18.52900
C           8.26100         9.56900        19.76300
O           7.76400         9.19600        21.05600
C           8.41700         8.03300        21.58500
O           7.74700         7.73200        22.81800
C           8.47200         7.98000        24.03100
C           7.92100         9.30700        24.52800
O           8.05500        10.34400        23.54600
H           7.84600         9.95800        22.64700
C           8.35300         9.61300        25.95300
O           7.54100        10.69500        26.43200
H           7.78500        11.07200        27.32500
C           8.66500         5.44700        24.59700
O           8.06900         4.83100        23.44500
H           8.20500         3.84200        23.39100
C           8.15300         6.82800        24.97000
O           8.54000         7.18500        26.30500
C           8.04200         8.41900        26.84100
O           8.76100         8.67900        28.05500
C           8.12600         8.36100        29.30200
C           8.61900         7.03300        29.85300
O           8.30600         5.98700        28.92100
H           8.40400         6.38100        28.00700
C           8.04400         6.55400        31.17500
O           8.57900         5.31000        31.65200
H           8.12200         5.04300        32.50100
C           7.98900        10.75700        30.13400
O           8.55200        11.42000        28.99200
H           8.29700        12.38400        29.06200
C           8.44100         9.33600        30.42600
O           7.82700         8.96400        31.66800
C           8.28700         7.69400        32.15100
O           7.46200         7.44000        33.29700
C           7.96300         7.87600        34.56900
C           7.32900         9.14700        35.11100
O           7.44200        10.17800        34.11900
H           7.05700         9.76500        33.29300
C           7.98400         9.64400        36.38900
O           7.41200        10.83300        36.95300
H           7.90100        10.96900        37.81400
C           8.34400         5.39600        35.33100
O           7.80200         4.61800        34.25400
H           7.88700         3.64500        34.46700
C           7.89600         6.81200        35.65200
O           8.65100         7.30400        36.76900
C           8.02000         8.45900        37.34000
O           8.79100         8.71000        38.52500
C           8.24200         8.30300        39.78600
C           8.65000         6.91700        40.25800
O           8.34100         5.93200        39.26000
H           8.67400         6.40100        38.44200
C           8.06800         6.57800        -0.44200
O           8.75500         5.43400         0.08600
H           8.33700         4.98500         0.87500
C           7.92700        10.68900        40.55500
O           8.49400        11.47500        39.49700
H           8.36200        12.45200        39.66500
C           8.55300         9.34000        -1.21000
O           7.81300         9.00200        -0.02800
C           8.28600         7.75300         0.49700
O           7.39800         7.57700         1.61100
C           3.86100         4.17100         0.23500
C           4.39700         2.86000        42.86000
O           4.34000         1.78400        41.91200
H           4.48600         2.19200        41.01100
C           3.71800         2.47100         2.10100
O           4.38700         1.32900         2.65600
H           4.07800         1.29600         3.60600
C           3.44300         6.62800         0.84100
O           3.83100         7.35300        -0.33600
H           3.34400         8.22600        -0.31900
C           4.09900         5.30900         1.21400
O           3.54600         4.96200         2.49200
C           3.94300         3.67900         2.99600
O           3.27600         3.46300         4.24800
C           3.86400         3.66300         5.54100
C           3.63100         5.04000         6.14200
O           4.04600         5.95800         5.11900
H           3.75500         5.66500         4.20800
C           4.30300         5.33900         7.47200
O           3.98500         6.66100         7.92900
H           4.27600         6.77600         8.87900
C           3.75500         1.29800         6.41400
O           3.37400         0.60600         5.21600
H           3.69100        -0.33500         5.33800
C           3.36700         2.74900         6.64900
O           4.10900         2.99700         7.85200
C           3.74900         4.27300         8.40300
O           4.35800         4.37800         9.69800
C           3.66500         4.01200        10.90000
C           3.99600         2.59100        11.32700
O           3.41000         1.61100        10.45800
H           3.73500         1.89800         9.55700
C           3.53500         2.37900        12.76000
O           3.82700         1.04600        13.20200
H           3.80400         1.12400        14.19900
C           3.73100         6.52600        11.65700
O           4.20300         7.17000        10.46500
H           4.20200         8.15400        10.64200
C           4.17700         5.08500        11.84600
O           3.80500         4.73000        13.18600
C           4.22900         3.42700        13.61400
O           3.42000         3.42900        14.80000
C           4.07200         3.79200        16.02500
C           3.91100         5.24800        16.42900
O           4.37900         6.09800        15.37200
H           4.08500         5.74000        14.48600
C           4.66400         5.41100        17.74000
O           4.53300         6.75100        18.23600
H           4.70800         6.68600        19.21800
C           4.30000         1.46500        16.86100
O           3.88700         0.63800        15.76300
H           4.06500        -0.30900        16.03200
C           3.67300         2.82400        17.12700
O           4.18800         3.25400        18.39500
C           4.05000         4.60100        18.87000
O           4.88000         4.75300        20.03100
C           4.29400         4.27200        21.24900
C           4.78200         2.90700        21.70600
O           4.42500         1.88700        20.76100
H           4.44500         2.31500        19.85800
C           4.17600         2.52700        23.04700
O           4.90300         1.43300        23.62500
H           4.52300         1.28400        24.53800
C           4.22300         6.79500        22.18000
O           4.78400         7.50200        21.06400
H           4.48300         8.45400        21.11700
C           4.68800         5.35000        22.24600
O           4.15900         4.93400        23.51300
C           4.46100         3.63600        24.04700
O           3.67700         3.62400        25.24900
C           4.37700         4.03300        26.43300
C           4.06300         5.43800        26.92100
O           4.43900         6.43800        25.96300
H           4.37900         6.07600        25.03300
C           4.59500         5.70200        28.32000
O           4.06300         6.97500        28.71500
H           4.41200         7.06200        29.64800
C           4.39800         1.62100        27.40000
O           4.02300         0.94200        26.19300
H           4.15800        -0.02800        26.39200
C           4.00800         3.08200        27.56000
O           4.59100         3.34000        28.84500
C           4.10600         4.62200        29.27100
O           4.74300         4.74300        30.55100
C           4.00700         4.36300        31.72400
C           4.41700         3.03100        32.33200
O           4.31600         2.07900        31.26300
H           4.70500         2.56400        30.48000
C           3.62700         2.66700        33.57900
O           4.01900         1.37600        34.06800
H           3.90500         1.28300        35.05700
C           3.82100         6.78900        32.55200
O           4.31400         7.58400        31.46400
H           3.97200         8.51300        31.60800
C           4.28500         5.36800        32.83000
O           3.54200         5.04100        34.01300
C           3.94100         3.77900        34.56700
O           3.38800         3.52100        35.86600
C           4.25500         3.74000        36.98800
C           4.02200         5.17600        37.42900
O           4.38300         6.17100        36.46000
H           4.06200         5.90100        35.55200
C           4.57200         5.52100        38.80300
O           3.98400         6.77700        39.17300
H           4.12000         6.91000        40.15500
C           4.25900         1.34000        37.72700
O           3.57300         0.73800        36.62000
H           3.54600        -0.23300        36.85700
C           3.84700         2.76100        38.07700
O           4.38500         3.13300        39.35400
C           4.00500         4.46300        39.73500
O           4.53900         4.46600        41.06700
C           7.85400        16.16500         2.99600
C           7.31200        17.52200         3.41300
O           7.45800        18.50900         2.38200
H           7.32200        18.02200         1.51900
C           7.70300        17.91500         4.82800
O           6.96500        19.02200         5.36600
H           7.33400        19.27400         6.26000
C           8.06000        13.84100         3.94200
O           7.55300        13.01900         2.88100
H           7.69800        12.05200         3.09200
C           7.42200        15.21100         4.09800
O           8.00800        15.50100         5.37500
C           7.55300        16.78300         5.83200
O           8.34400        17.01900         7.00600
C           7.84800        16.55200         8.26900
C           8.48500        15.23100         8.66900
O           8.28700        14.17100         7.72300
H           8.07300        14.61700         6.85400
C           8.03600        14.82100        10.06200
O           8.79600        13.71700        10.57300
H           8.51400        13.50800        11.50900
C           7.68600        18.98500         9.20600
O           7.95100        19.74900         8.02000
H           7.66900        20.70200         8.13000
C           8.19600        17.56100         9.35100
O           7.64300        17.19100        10.62200
C           8.20600        15.94800        11.06800
O           7.46200        15.60100        12.24500
C           7.93500        15.99000        13.54200
C           7.60100        17.42900        13.90100
O           8.27700        18.33900        13.02000
H           8.12500        17.90500        12.13200
C           8.15200        17.78300        15.27300
O           7.81000        19.08500        15.77100
H           7.91200        19.23300        16.75500
C           7.75400        13.66400        14.25300
O           7.57000        12.99200        12.99900
H           7.86900        12.04100        13.07900
C           7.33700        15.08300        14.60500
O           7.80300        15.38700        15.92800
C           7.68300        16.76700        16.30200
O           8.35200        16.95500        17.55800
C           7.80800        16.56600        18.82700
C           8.45000        15.29000        19.34700
O           8.18100        14.20900        18.44300
H           8.41000        14.56800        17.53800
C           8.07900        14.86300        20.75800
O           8.86800        13.79300        21.29800
H           8.47000        13.44600        22.14700
C           7.58300        18.92400        19.56600
O           8.31400        19.55800        18.50600
H           8.19200        20.54700        18.59400
C           8.03900        17.53400        19.97700
O           7.36400        17.13500        21.17900
C           8.16600        16.06100        21.69100
O           7.31400        15.78300        22.81100
C           7.77400        16.18100        24.11100
C           7.18100        17.43600        24.73000
O           7.37300        18.43400        23.71500
H           7.05800        18.02800        22.85700
C           7.85200        17.78500        26.04800
O           7.30700        19.00700        26.56800
H           8.01400        19.33000        27.19700
C           8.20900        13.76200        24.68500
O           7.78000        13.05200        23.51400
H           8.09300        12.10300        23.46900
C           7.60100        15.07800        25.14300
O           8.16300        15.36800        26.43100
C           7.72700        16.60900        27.00300
O           8.59200        16.75100        28.13900
C           8.11500        16.40400        29.44800
C           8.65200        15.05200        29.89100
O           8.37600        14.07700        28.87500
H           8.43900        14.59300        28.02000
C           8.04900        14.67800        31.23500
O           8.66200        13.46500        31.69700
H           8.43400        13.30000        32.65700
C           8.07500        18.85500        30.15900
O           8.53400        19.58300        29.01100
H           8.64800        20.57400        29.08200
C           8.57700        17.45000        30.44900
O           7.99500        17.13600        31.72300
C           8.40200        15.83100        32.16000
O           7.63600        15.66000        33.36200
C           8.34400        16.00400        34.56200
C           7.91400        17.39100        35.01200
O           8.06600        18.39900        34.00200
H           7.73700        17.87200        33.21700
C           8.36800        17.80700        36.40100
O           7.92600        19.06100        36.94200
H           8.24200        19.20200        37.88000
C           8.26900        13.56800        35.34400
O           7.65800        12.92000        34.21900
H           7.57800        11.94500        34.42700
C           7.89300        15.01400        35.62300
O           8.39800        15.38200        36.91500
C           7.93800        16.67800        37.32400
O           8.64700        16.79500        38.56600
C           7.96600        16.51600        39.79800
C           8.40500        15.16900        40.34900
O           8.15200        14.03900        39.50200
H           8.44300        14.27700        38.57500
C           7.84500        14.83100        -0.34100
O           8.42500        13.63100         0.19200
H           8.03900        13.45000         1.09600
C           8.02900        18.93200        40.56200
O           8.36000        19.66000        39.37100
H           8.29100        20.64500        39.52700
C           8.35200        17.48800        -1.16400
O           7.76200        17.17200         0.10600
C           8.17700        15.91800         0.66800
O           7.26800        15.72600         1.76100
C           3.75800        12.45000         0.25100
C           4.03600        11.02900        42.78400
O           3.59500        10.10000        41.78300
H           3.79400        10.43500        40.86200
C           3.37800        10.66000         2.04200
O           3.74400         9.29400         2.28800
H           3.48500         9.03200         3.21700
C           3.60400        14.72900         1.05300
O           4.14400        15.52200        -0.01400
H           3.81400        16.45800         0.11100
C           4.22900        13.37800         1.35900
O           3.58800        13.01200         2.58900
C           3.94300        11.68700         3.00900
O           3.28600        11.60600         4.28200
C           4.08900        11.84400         5.44800
C           3.82300        13.28200         5.86400
O           4.19100        14.23300         4.85400
H           3.94300        13.76300         4.00600
C           4.53400        13.60700         7.16700
O           4.29000        14.92200         7.68600
H           4.49500        14.99300         8.66200
C           4.14000         9.44700         6.24400
O           3.65200         8.71800         5.10900
H           4.14700         7.86200         5.25700
C           3.68400        10.86700         6.53900
O           4.12400        11.25800         7.84800
C           3.98600        12.64100         8.20400
O           4.66600        12.74200         9.46400
C           3.94800        12.37900        10.65200
C           4.20200        10.95300        11.11300
O           3.73500        10.04000        10.10900
H           4.01400        10.52200         9.27800
C           3.41000        10.75400        12.39500
O           3.45500         9.41000        12.89800
H           3.29600         9.29800        13.87900
C           3.74000        14.68500        11.40000
O           4.24500        15.56700        10.38700
H           3.81600        16.46200        10.50600
C           4.31200        13.32900        11.78100
O           3.76200        12.98300        13.06000
C           3.90500        11.63500        13.53000
O           3.23200        11.59800        14.79700
C           3.91500        11.79300        16.04500
C           3.61800        13.20700        16.51700
O           4.12200        14.12400        15.53400
H           4.04300        13.73800        14.61500
C           4.25400        13.45800        17.87400
O           3.90000        14.79700        18.25200
H           4.23000        15.04000        19.16400
C           3.76500         9.39100        16.76300
O           3.26000         8.71000        15.60500
H           3.33900         7.71800        15.70700
C           3.37600        10.82500        17.08500
O           3.95300        11.16500        18.35400
C           3.78500        12.46900        18.92900
O           4.58300        12.63400        20.11000
C           3.87800        12.46800        21.34900
C           4.25500        11.14800        22.00100
O           4.24200        10.06100        21.06400
H           4.48700        10.38700        20.15100
C           3.46600        10.83000        23.26200
O           3.57300         9.47900        23.73300
H           3.35400         9.43500        24.70800
C           3.63100        14.81700        22.13000
O           4.11200        15.48600        20.95500
H           3.87000        16.45500        21.01200
C           4.22700        13.45600        22.45000
O           3.57900        13.21200        23.70700
C           3.86300        11.91400        24.25000
O           3.12500        11.73900        25.46800
C           3.84900        12.15200        26.63700
C           3.50400        13.54300        27.14200
O           3.79000        14.49200        26.10400
H           3.65700        14.01800        25.23300
C           4.14800        13.87900        28.47700
O           3.73200        15.16000        28.97100
H           4.08900        15.33700        29.88800
C           4.17000         9.74100        27.37300
O           3.52000         9.07700        26.27900
H           3.71300         8.10300        26.39500
C           3.67800        11.12900        27.74800
O           4.48000        11.55700        28.85900
C           3.94000        12.74200        29.46400
O           4.68600        13.00200        30.66200
C           3.94000        12.55400        31.80300
C           4.36100        11.18100        32.29900
O           3.95000        10.24900        31.28800
H           4.13200        10.67400        30.40100
C           3.74100        10.77800        33.62700
O           4.12900         9.51800        34.19300
H           3.86400         9.52800        35.15700
C           3.87600        14.96400        32.74900
O           3.89100        15.61600        31.47100
H           3.85000        16.56500        31.78400
C           4.23800        13.50200        32.95400
O           3.52900        13.04900        34.11600
C           4.07500        11.84000        34.66200
O           3.28200        11.66100        35.84500
C           3.92100        11.99300        37.08700
C           3.45700        13.32700        37.64900
O           3.58700        14.36100        36.66200
H           3.39700        13.93600        35.77700
C           4.11900        13.70300        38.96400
O           3.57300        14.97100        39.35700
H           3.80100        15.07600        40.32500
C           3.93200         9.61700        37.94400
O           3.52500         8.85700        36.79600
H           3.70400         7.90300        37.03600
C           3.46400        11.04300        38.18200
O           4.08500        11.28800        39.45300
C           3.71400        12.59300        39.92000
O           4.51000        12.67700        41.11100
C           8.04400        24.31300         2.96200
C           7.62500        25.68300         3.46800
O           7.68200        26.70400         2.46200
H           7.66900        26.19900         1.59900
C           8.02000        26.06300         4.88600
O           7.49800        27.33200         5.30500
H           7.64500        27.43100         6.28900
C           7.60500        21.90700         3.72200
O           7.56600        21.13700         2.51200
H           7.82200        20.17600         2.62000
C           7.39800        23.39000         3.98300
O           7.86700        23.59600         5.32400
C           7.56000        24.92200         5.77800
O           8.35800        25.09100         6.95800
C           7.70300        24.75300         8.19000
C           8.09200        23.37600         8.70200
O           7.78900        22.35800         7.73700
H           7.77900        22.71100         6.80200
C           7.46500        23.00800        10.03700
O           8.07800        21.79500        10.49800
H           7.72300        21.60500        11.41400
C           7.25500        27.13500         8.92400
O           8.00200        27.83800         7.92000
H           7.92600        28.82400         8.06800
C           7.94800        25.82000         9.24400
O           7.40700        25.36000        10.49100
C           7.80900        24.09700        11.04000
O           7.15800        23.88200        12.30100
C           7.85200        24.34200        13.47000
C           7.25600        25.66600        13.91900
O           7.64500        26.61400        12.91400
H           7.69000        26.22800        11.99300
C           7.55600        26.04100        15.36100
O           6.80800        27.17000        15.83700
H           6.97300        27.34800        16.80700
C           8.41000        22.03800        14.20700
O           7.92300        21.16700        13.17500
H           8.25100        20.23000        13.29000
C           7.61700        23.29000        14.54200
O           8.01200        23.79800        15.82500
C           7.22800        24.89800        16.30800
O           7.91300        25.16600        17.54000
C           7.55000        24.69500        18.84600
C           8.07800        23.31700        19.21200
O           7.79300        22.33900        18.20100
H           7.67600        22.90800        17.38700
C           7.64700        22.91300        20.61200
O           8.41100        21.77500        21.03600
H           8.11600        21.64700        21.98300
C           7.38300        27.17800        19.78300
O           7.32300        27.94900        18.57500
H           7.32100        28.93300        18.75300
C           7.89900        25.75100        19.88200
O           7.37800        25.31100        21.14500
C           7.89600        24.04900        21.59000
O           7.19700        23.85300        22.82800
C           7.75600        24.27000        24.08300
C           7.24800        25.61800        24.56800
O           7.52800        26.64300        23.60400
H           7.32300        26.24400        22.71000
C           7.90100        26.06300        25.86700
O           7.24300        27.21500        26.41400
H           7.36200        27.40300        27.38800
C           7.78600        21.87000        24.90100
O           7.65800        21.07700        23.71200
H           7.64200        20.13900        24.05700
C           7.35700        23.30100        25.18400
O           8.05200        23.63900        26.39300
C           7.69100        24.94300        26.87200
O           8.53100        25.06200        28.03000
C           8.09100        24.56400        29.30200
C           8.64400        23.26900        29.87400
O           8.42400        22.19800        28.94500
H           8.64500        22.43600        27.99900
C           8.17100        22.86000        31.25900
O           8.88500        21.73400        31.79000
H           8.47500        21.56600        32.68700
C           7.28700        26.92600        29.99100
O           7.75800        27.76000        28.92200
H           7.77900        28.71000        29.23300
C           8.12800        25.70100        30.31000
O           7.50000        25.18800        31.49500
C           8.20400        24.10800        32.12500
O           7.49400        23.86900        33.34800
C           8.26400        24.13000        34.53100
C           7.57600        25.35700        35.10500
O           7.79500        26.50300        34.26900
H           7.33800        26.23800        33.42000
C           8.01300        25.84400        36.47700
O           7.26300        26.90100        37.09200
H           7.73900        27.18100        37.92600
C           8.80400        21.87400        35.10400
O           8.08200        21.10800        34.12800
H           8.25200        20.12300        34.17400
C           8.14900        23.12500        35.66500
O           8.80100        23.57100        36.86300
C           8.07100        24.66500        37.43500
O           8.69300        24.99800        38.68500
C           8.07900        24.64500        39.93200
C           8.71500        23.34900        40.40700
O           8.45800        22.27500        39.49000
H           8.67200        22.62600        38.57800
C           8.21700        23.00400        -0.26200
O           8.69500        21.80400         0.36300
H           8.14400        21.58300         1.16800
C           8.01500        27.05600        40.55400
O           8.31300        27.78300        39.35300
H           8.05800        28.73200        39.54200
C           8.59000        25.69700        -1.16000
O           8.10100        25.42900         0.16200
C           8.58700        24.16800         0.64300
O           7.55800        24.05600         1.63700
C           3.83500        20.60400         0.03800
C           4.00300        19.19900        42.66000
O           3.74300        18.24500        41.62000
H           4.02700        18.67500        40.76300
C           3.45100        18.82400         1.96400
O           4.01500        17.57100         2.37600
H           3.76400        17.32400         3.31300
C           3.63100        22.89800         0.92900
O           4.22000        23.62500        -0.15900
H           4.10700        24.60800        -0.01900
C           4.20500        21.51600         1.19700
O           3.71200        21.17700         2.50200
C           3.97400        19.84400         2.96200
O           3.26400        19.68200         4.19900
C           3.84000        19.94800         5.48600