# freq=raman b3lyp/6-31+g(2d,p) geom=connectivity

483 6115/6115.com

0 1
C           8.29600         8.14200         3.16000
C           7.76000         9.51700         3.52200
O           8.24500        10.48400         2.57900
H           8.08600        10.05600         1.69000
C           8.14200         9.83900         4.95800
O           7.75700        11.13100         5.44800
H           7.90000        11.24200         6.43200
C           8.49900         5.74500         3.85500
O           7.93300         5.09500         2.70800
H           8.02900         4.11400         2.87800
C           7.86200         7.08900         4.16700
O           8.19600         7.42500         5.52200
C           7.74500         8.72900         5.91700
O           8.55100         8.97500         7.07900
C           8.05300         8.53600         8.35100
C           8.67700         7.19700         8.71200
O           8.53400         6.10700         7.79000
H           8.55100         6.68800         6.97700
C           8.21200         6.76800        10.09400
O           8.97800         5.66600        10.60200
H           8.65900         5.48400        11.53200
C           7.93200        11.00600         9.24200
O           8.41200        11.73000         8.10000
H           8.38800        12.70600         8.31900
C           8.36100         9.56000         9.43200
O           7.78100         9.08700        10.65700
C           8.38300         7.87200        11.12500
O           7.52400         7.64700        12.25200
C           8.12200         7.94100        13.52400
C           7.66400         9.30200        14.02200
O           8.09000        10.29400        13.07600
H           8.00800         9.83800        12.19000
C           8.11300         9.63300        15.43600
O           7.58500        10.87000        15.93600
H           7.90100        11.01400        16.87400
C           8.56500         5.56500        14.42400
O           8.34000         4.89200        13.17700
H           8.55600         3.92900        13.33800
C           7.92700         6.92700        14.63900
O           8.39300         7.40300        15.91000
C           7.79700         8.57600        16.48200
O           8.63500         8.82700        17.62000
C           8.03700         8.46100        18.87200
C           8.65800         7.16300        19.36000
O           8.63000         6.13500        18.36000
H           9.12700         6.54900        17.59800
C           8.08000         6.75600        20.70600
O           8.80100         5.64800        21.26400
H           8.38600         5.49400        22.16000
C           7.83800        10.99000        19.46100
O           8.47900        11.64300        18.35600
H           8.26100        12.61100        18.47700
C           8.26900         9.58900        19.86400
O           7.68400         9.20000        21.11500
C           8.27600         7.98000        21.58600
O           7.49900         7.71000        22.76200
C           8.05900         8.07600        24.03100
C           7.60900         9.41600        24.59100
O           8.13100        10.38800        23.67400
H           7.94600        10.13900        22.72400
C           7.96300         9.71800        26.03800
O           7.20200        10.80300        26.58900
H           7.62500        10.99200        27.47500
C           8.19000         5.59700        24.77300
O           7.91800         4.96900        23.51200
H           7.90500         3.97000        23.55900
C           7.76500         7.02300        25.08700
O           8.26900         7.39700        26.37700
C           7.71500         8.56600        26.99900
O           8.59600         8.68000        28.12600
C           8.00300         8.44800        29.41200
C           8.49400         7.11200        29.94600
O           8.24500         6.15000        28.91100
H           8.53200         6.54000        28.03600
C           7.85300         6.76800        31.28100
O           8.12200         5.50500        31.90700
H           7.75600         5.44000        32.83500
C           7.85800        10.91400        30.26500
O           8.21700        11.51400        29.01200
H           8.06600        12.49500        29.13200
C           8.33700         9.48600        30.47100
O           7.92000         9.07000        31.77900
C           8.39500         7.80200        32.25400
O           7.63200         7.80300        33.47000
C           8.25100         8.15800        34.71500
C           7.80400         9.55000        35.12800
O           8.40300        10.43500        34.17100
H           8.06700        10.03300        33.31900
C           8.29600         9.94600        36.51100
O           7.64900        11.11300        37.03800
H           8.01800        11.33800        37.94000
C           8.40100         5.75300        35.48800
O           7.61300         5.03200        34.53000
H           7.64000         4.05100        34.72200
C           8.04700         7.18300        35.86300
O           8.74100         7.62700        37.03700
C           8.16200         8.83900        37.54400
O           8.89800         9.10000        38.74700
C           8.28400         8.71600        39.98600
C           8.82900         7.37700        40.45400
O           8.82400         6.37000        39.43200
H           9.33800         6.76100        38.66900
C           8.28000         6.92000        -0.27800
O           8.89900         5.73400         0.24200
H           8.38700         5.40100         1.03300
C           7.76500        11.03000        40.61400
O           8.26200        11.76300        39.48500
H           8.09400        12.74200        39.60200
C           8.44900         9.75700        -0.98600
O           7.78800         9.31800         0.21100
C           8.35900         8.09100         0.68800
O           7.67600         7.79200         1.91400
C           4.04700         4.18800         0.33700
C           4.34500         2.78000        42.90000
O           4.25400         1.75800        41.89700
H           4.62400         2.05100        41.01600
C           3.63100         2.49400         2.13700
O           3.95900         1.18700         2.63000
H           3.65700         1.00200         3.56500
C           4.06600         6.53400         1.14500
O           4.40700         7.27800        -0.03400
H           4.20700         8.24900         0.09200
C           4.50300         5.11100         1.45600
O           3.88900         4.76700         2.70700
C           4.11400         3.44600         3.22000
O           3.37800         3.33600         4.44700
C           4.22300         3.74400         5.53200
C           3.95100         5.15700         6.01900
O           4.28100         6.10800         4.99600
H           3.93900         5.76100         4.12300
C           4.52300         5.55000         7.37200
O           4.09200         6.84200         7.82400
H           4.28200         6.87200         8.80500
C           4.25400         1.36800         6.39000
O           3.91500         0.55200         5.25900
H           4.40000        -0.31700         5.34700
C           3.88000         2.81100         6.68200
O           4.50700         3.20600         7.91100
C           4.11700         4.50000         8.39300
O           4.80000         4.73400         9.63400
C           4.15300         4.30000        10.83900
C           4.71500         2.96500        11.29900
O           4.38000         1.93000        10.36300
H           4.70500         2.21700         9.46200
C           4.30100         2.61800        12.72000
O           4.85200         1.41700        13.27800
H           4.46300         1.10600        14.14500
C           3.85500         6.74800        11.74800
O           4.13900         7.43400        10.52000
H           3.90500         8.40500        10.56900
C           4.43000         5.34900        11.90400
O           3.91900         4.94000        13.18000
C           4.46400         3.73500        13.73800
O           3.60500         3.55500        14.87400
C           4.25900         3.91800        16.09900
C           3.83500         5.30200        16.56200
O           3.86700         6.32400        15.55500
H           3.91100         5.96800        14.62200
C           4.45300         5.54600        17.93000
O           3.97300         6.72700        18.59000
H           4.43200         6.78300        19.47600
C           4.58900         1.46600        16.85800
O           3.94000         0.73800        15.80500
H           4.27800        -0.20300        15.84800
C           4.08400         2.86300        17.17900
O           4.74600         3.22000        18.40100
C           4.12400         4.41600        18.89100
O           4.76400         4.59700        20.16300
C           3.98000         4.37200        21.34400
C           4.35300         2.96100        21.77000
O           3.93000         2.04000        20.75500
H           4.62600         2.12500        20.04100
C           3.73800         2.63600        23.12200
O           4.08900         1.32800        23.59500
H           3.86600         1.34000        24.56900
C           4.05800         6.82100        22.32800
O           4.40400         7.54600        21.13900
H           4.46000         8.53700        21.25500
C           4.47600         5.36100        22.38600
O           3.91200         5.03000        23.66300
C           4.19300         3.69600        24.11100
O           3.46000         3.48700        25.32700
C           4.23600         3.86600        26.47300
C           3.78400         5.23900        26.94400
O           4.21700         6.30200        26.08300
H           4.04800         6.02700        25.13700
C           4.22200         5.53800        28.36800
O           3.74700         6.73100        29.00900
H           4.17900         6.85600        29.90200
C           4.36400         1.46000        27.41800
O           3.84000         0.82500        26.24300
H           4.28500        -0.05900        26.09900
C           3.91900         2.90200        27.60400
O           4.55100         3.29400        28.83200
C           3.97600         4.46900        29.42100
O           4.71600         4.52100        30.64900
C           4.00900         4.19500        31.85400
C           4.37100         2.83100        32.41900
O           4.17500         1.74900        31.49700
H           4.49300         2.00000        30.58300
C           3.60100         2.53100        33.69500
O           3.89400         1.28800        34.35000
H           3.60700         1.37800        35.30400
C           3.98200         6.64400        32.58600
O           4.49700         7.40800        31.48500
H           4.38200         8.36400        31.75400
C           4.38800         5.21700        32.91400
O           3.64700         4.89400        34.10000
C           3.94400         3.62200        34.69600
O           3.36900         3.42900        35.99600
C           4.14400         3.74200        37.16300
C           3.85600         5.16500        37.61300
O           4.41400         6.05500        36.63500
H           3.95000         5.78400        35.79200
C           4.35200         5.52900        39.00200
O           3.85100         6.76300        39.53700
H           4.18200         6.76700        40.48100
C           4.34200         1.36200        37.94500
O           3.68200         0.71200        36.84900
H           3.75700        -0.25600        37.08600
C           3.81900         2.75200        38.26900
O           4.46300         3.16500        39.48300
C           4.00300         4.42700        39.98800
O           4.77800         4.40000        41.19500
C           8.10000        16.33300         3.11300
C           7.36500        17.58000         3.58000
O           7.47500        18.63900         2.61900
H           7.21900        18.35000         1.69600
C           7.89100        18.08100         4.91500
O           7.20500        19.26800         5.33900
H           7.62900        19.43500         6.23000
C           8.21400        13.80200         3.87200
O           8.18700        13.11800         2.61100
H           8.54300        12.20800         2.82000
C           7.85100        15.25200         4.15100
O           8.23800        15.67700         5.46600
C           7.72900        16.94300         5.91000
O           8.54600        17.17200         7.06700
C           7.95800        16.77500         8.31500
C           8.48200        15.45400         8.85200
O           8.15700        14.38400         7.95200
H           8.29800        14.77900         7.04400
C           7.95800        15.01200        10.20900
O           8.64500        13.79200        10.52200
H           8.23600        13.36700        11.32900
C           7.87900        19.15500         9.10100
O           7.92200        19.88400         7.86500
H           7.87300        20.86500         8.04900
C           8.38300        17.75300         9.39800
O           7.81700        17.36900        10.66000
C           8.25300        16.11800        11.21000
O           7.48600        15.80900        12.38300
C           8.03900        16.18900        13.65100
C           7.49600        17.52400        14.13400
O           7.59600        18.54200        13.12800
H           7.27400        18.05600        12.31500
C           8.01000        17.91600        15.51000
O           7.24300        18.96900        16.11100
H           7.80300        19.23200        16.89600
C           8.12700        13.71000        14.31000
O           7.74500        13.01200        13.11500
H           8.06400        12.07600        13.26200
C           7.75700        15.13000        14.70500
O           8.28200        15.44300        16.00400
C           7.83400        16.73200        16.44800
O           8.60600        16.96200        17.63600
C           8.09600        16.54200        18.91000
C           8.60400        15.21100        19.43900
O           8.41000        14.19900        18.44000
H           8.82200        14.61100        17.62800
C           8.08600        14.79700        20.80700
O           8.79400        13.72600        21.44900
H           8.37400        13.37200        22.28500
C           7.74700        18.95200        19.69500
O           8.04500        19.72200        18.52100
H           7.81100        20.68900        18.62300
C           8.33000        17.58100        19.99400
O           7.69000        17.14900        21.20500
C           8.21700        15.94900        21.79000
O           7.31700        15.69400        22.87800
C           7.83300        16.09900        24.15400
C           7.16100        17.35000        24.69500
O           7.22900        18.44400        23.76900
H           6.77100        18.17900        22.92000
C           7.67000        17.91200        26.01300
O           6.94800        19.05000        26.50600
H           7.23100        19.10000        27.46400
C           8.35300        13.63700        24.93800
O           7.71700        12.83800        23.93000
H           8.01900        11.89700        24.08200
C           7.68600        14.98300        25.17500
O           8.18500        15.55600        26.39300
C           7.49400        16.70100        26.91400
O           8.10300        17.00600        28.17700
C           7.62000        16.63600        29.47600
C           8.34200        15.37400        29.91900
O           7.95400        14.33300        29.01000
H           8.10700        14.63800        28.06900
C           7.85400        14.98900        31.30600
O           8.28300        13.67700        31.69700
H           7.96800        13.51800        32.63300
C           7.18500        19.03100        30.30500
O           7.46800        19.72400        29.08000
H           7.63600        20.69700        29.23300
C           7.94600        17.72800        30.48300
O           7.84400        17.44600        31.88700
C           8.28600        16.12300        32.22200
O           7.56400        15.96600        33.45300
C           8.14500        16.35200        34.70700
C           7.57300        17.68800        35.15100
O           7.86600        18.73500        34.21400
H           7.79000        18.30500        33.31500
C           8.04600        18.05700        36.54800
O           7.48400        19.22100        37.17200
H           7.87100        19.39300        38.07800
C           8.11500        13.86100        35.43400
O           7.60900        13.20400        34.26300
H           7.97500        12.27700        34.33800
C           7.69800        15.29700        35.70500
O           8.16500        15.66400        37.01200
C           7.74200        16.93500        37.52800
O           8.49500        17.01700        38.74700
C           7.84000        16.76300        39.99800
C           8.31200        15.36800        40.37400
O           7.82300        14.34800        39.49200
H           7.96300        14.69300        38.56400
C           7.94700        15.03400        -0.26100
O           8.78600        13.94200         0.14300
H           8.49900        13.68500         1.06600
C           8.17700        19.17900        40.83100
O           8.41700        19.88200        39.60300
H           8.73800        20.80100        39.83100
C           8.45200        17.69900        -1.03900
O           7.93500        17.42600         0.27200
C           8.35400        16.12700         0.71400
O           7.51000        15.95300         1.86100
C           3.88800        12.30400         0.34700
C           4.24500        10.90600        42.89700
O           3.64700         9.96300        41.99400
H           3.91800        10.32200        41.10100
C           3.74600        10.71000         2.24600
O           4.01800         9.36700         2.67400
H           3.84100         9.30300         3.65600
C           3.81100        14.71500         1.18600
O           4.32300        15.37800         0.02100
H           4.07300        16.33700         0.15700
C           4.35300        13.31000         1.38900
O           3.90900        13.03600         2.72600
C           4.30800        11.74400         3.20700
O           3.48000        11.65000         4.37600
C           4.12300        11.95500         5.62200
C           3.78700        13.34700         6.13200
O           4.24600        14.36800         5.23300
H           4.03700        14.05600         4.30700
C           4.25700        13.66400         7.54200
O           3.65400        14.87800         8.01200
H           4.09700        14.93500         8.90700
C           3.90800         9.51700         6.37800
O           3.58400         8.74200         5.21400
H           3.63000         7.76900         5.43900
C           3.61300        10.98000         6.67000
O           4.12600        11.25800         7.98100
C           3.78900        12.56100         8.47800
O           4.52600        12.73000         9.69800
C           3.87900        12.43900        10.94600
C           4.26900        11.04700        11.41500
O           3.94800        10.02600        10.45800
H           4.57500        10.22600         9.70500
C           3.64400        10.66000        12.74500
O           4.19600         9.41400        13.19600
H           3.67800         9.27300        14.03900
C           3.90700        14.85200        11.79200
O           4.24500        15.49000        10.55200
H           4.23600        16.48900        10.59000
C           4.31600        13.40800        12.03200
O           3.76200        13.08200        13.31500
C           4.07000        11.74200        13.72400
O           3.18900        11.73200        14.85700
C           3.78000        12.08800        16.11500
C           3.25400        13.42900        16.59700
O           3.45400        14.45600        15.61400
H           3.28700        14.01800        14.73100
C           3.90700        13.88000        17.89400
O           3.52800        15.15200        18.44100
H           4.02700        15.16900        19.30800
C           3.84600         9.59200        17.01600
O           3.45200         8.92900        15.80600
H           3.70800         7.96900        15.92000
C           3.43200        11.04600        17.16500
O           4.03700        11.47900        18.39300
C           3.57100        12.75400        18.85800
O           4.33300        12.87500        20.06700
C           3.83100        12.56700        21.37500
C           4.21200        11.21500        21.95500
O           4.14000        10.24700        20.89800
H           4.26100        10.67700        20.00300
C           3.58400        10.90000        23.30400
O           4.08000         9.59200        23.62400
H           3.85900         9.30100        24.55500
C           3.81300        15.01400        22.04600
O           4.39100        15.66500        20.90500
H           4.10600        16.62400        20.90900
C           4.21500        13.59700        22.42400
O           3.59800        13.32700        23.69100
C           3.95000        12.04600        24.23300
O           3.10000        11.89000        25.37900
C           3.78700        12.05000        26.62900
C           3.42700        13.43600        27.13900
O           3.61400        14.46900        26.16000
H           3.57200        14.03500        25.26000
C           4.05000        13.70800        28.49800
O           3.90200        14.99900        29.10800
H           4.34400        15.04400        30.00400
C           3.77600         9.52300        27.42100
O           3.43300         8.84700        26.20200
H           3.64900         7.88000        26.33300
C           3.46200        10.98900        27.66800
O           4.05200        11.33400        28.92900
C           3.69000        12.60700        29.48300
O           4.40400        12.82800        30.70800
C           3.79700        12.48000        31.96000
C           4.22600        11.09900        32.42700
O           3.85600        10.11100        31.45400
H           4.36000        10.35200        30.62500
C           3.58100        10.77800        33.76600
O           4.24400         9.57100        34.17000
H           4.01100         9.22500        35.07900
C           3.70900        14.91200        32.59700
O           4.54900        15.65200        31.70000
H           4.18900        16.58400        31.73700
C           3.95800        13.49300        33.08200
O           3.30300        13.09900        34.29600
C           3.85400        11.86900        34.78900
O           2.98400        11.64600        35.90800
C           3.58000        11.93000        37.18200
C           3.03000        13.23100        37.74500
O           3.23000        14.32100        36.83300
H           3.08600        13.94400        35.91800
C           3.78200        13.63200        39.00400
O           3.47800        14.94300        39.50300
H           3.91700        15.10000        40.38800
C           4.09600         9.50700        37.89800
O           3.79000         8.83700        36.66600
H           4.01600         7.87000        36.78300
C           3.41000        10.82600        38.21200
O           3.93300        11.19700        39.49600
C           3.55400        12.49300        39.98300
O           4.43200        12.55200        41.11600
C           7.89500        24.58000         3.14900
C           7.56600        25.95100         3.71500
O           7.91400        26.95000         2.74500
H           7.66600        26.57100         1.85300
C           8.15900        26.18400         5.09500
O           7.55500        27.37200         5.62700
H           8.02600        27.56300         6.48800
C           7.95200        22.11000         3.88800
O           7.28000        21.40700         2.83300
H           7.45400        20.43000         2.95900
C           7.53100        23.53800         4.19400
O           8.28600        23.77800         5.39000
C           7.84900        25.00200         5.99900
O           8.69600        25.07500         7.15500
C           7.91100        24.89300         8.34200
C           8.32600        23.49600         8.77300
O           7.88400        22.42200         7.93000
H           8.24400        22.59500         7.01400
C           7.78300        23.18700        10.15900
O           8.27900        21.95900        10.71400
H           7.76900        21.78200        11.55500
C           7.83400        27.34400         9.20600
O           8.44600        28.04100         8.11000
H           8.29100        29.01900         8.24500
C           8.23400        25.89600         9.43700
O           7.61400        25.55100        10.68400
C           8.09500        24.28600        11.16100
O           7.29000        24.04100        12.32300
C           7.75800        24.40900        13.62900
C           7.41200        25.79600        14.14700
O           7.76300        26.69200        13.08300
H           7.38300        26.29800        12.24600
C           8.01200        26.06200        15.51800
O           7.37800        27.29200        15.89900
H           7.77500        27.39700        16.81000
C           7.73600        22.00600        14.46000
O           7.15000        21.25500        13.38700
H           7.31200        20.28700        13.57900
C           7.22900        23.42500        14.66000
O           7.92400        23.64400        15.89600
C           7.64200        24.93200        16.46400
O           8.28500        25.11700        17.73300
C           7.61800        24.78700        18.96100
C           7.94900        23.39200        19.46600
O           7.48400        22.45100        18.48800
H           7.81900        22.78200        17.60600
C           7.59600        23.10000        20.91500
O           8.48800        22.14600        21.51100
H           8.04300        21.66300        22.26400
C           7.61400        27.27900        19.59800
O           8.01800        27.93300        18.38700
H           7.83700        28.91400        18.45200
C           8.00400        25.85700        19.96800
O           7.24300        25.51200        21.13500
C           7.80000        24.34700        21.76000
O           7.10800        24.00000        22.96800
C           7.66400        24.33300        24.24800
C           7.08200        25.65000        24.73800
O           7.25700        26.65100        23.72500
H           6.78000        26.29100        22.92300
C           7.67900        26.02500        26.08400
O           7.07000        27.20000        26.63700
H           7.66700        27.69100        27.27200
C           7.70000        21.81400        24.93200
O           7.37900        21.15600        23.69800
H           7.47200        20.17400        23.86300
C           7.33100        23.25100        25.26300
O           7.86300        23.60900        26.54700
C           7.49400        24.89000        27.07900
O           8.39100        25.07200        28.18400
C           7.72300        24.81800        29.42900
C           8.17200        23.42000        29.82000
O           7.89600        22.33400        28.92200
H           8.05600        22.66800        27.99300
C           7.77800        23.11200        31.25500
O           8.25300        21.81800        31.65400
H           7.89800        21.53200        32.54400
C           7.81800        27.32700        30.13700
O           8.40300        28.00200        29.01300
H           8.30300        28.97900        29.20100
C           8.05400        25.86500        30.47900
O           7.51300        25.43200        31.73600
C           8.07400        24.21800        32.25500
O           7.25600        24.02600        33.41800
C           7.81400        24.42700        34.67800
C           7.21300        25.75400        35.11400
O           7.45100        26.77600        34.13500
H           7.40700        26.33600        33.23800
C           7.68100        26.14900        36.50500
O           7.04700        27.34600        36.97900
H           7.44900        27.71200        37.81800
C           8.02500        22.08900        35.35300
O           7.41000        21.30000        34.32400
H           7.56200        20.33600        34.54000
C           7.43600        23.43000        35.76000
O           7.99000        23.82300        37.02400
C           7.50000        25.06400        37.55300
O           8.29700        25.38300        38.70300
C           7.80100        25.01100        39.99700
C           8.55100        23.77500        40.46700
O           8.41900        22.68300        39.54600
H           8.42900        23.11600        38.64500
C           8.02800        23.32800        -0.25100
O           8.61000        22.14900         0.32200
H           8.19000        21.90000         1.19500
C           7.59700        27.39100        40.65200
O           8.37400        28.01500        39.62000
H           8.54200        28.98000        39.82400
C           8.24700        26.06300        -1.06700
O           7.73000        25.68400         0.21700
C           8.19100        24.44200         0.77000
O           7.29200        24.29300         1.87900
C           3.64600        20.53100         0.33500
C           4.00600        19.12900        42.87500
O           3.81900        18.05400        41.94400
H           3.88600        18.41200        41.01300
C           3.47000        18.68700         2.15300
O           3.97100        17.45700         2.69700
H           3.74200        17.32900         3.66200
C           3.89100        22.97100         1.18300
O           4.30500        23.67900         0.00500
H           4.01900        24.63600         0.04600
C           4.12900        21.48700         1.41300
O           3.45800        21.10400         2.62300
C           3.81600        19.80700         3.12100
O           3.16300        19.67800         4.39300
C           3.86300        19.99600         5.60500