# freq=raman b3lyp/6-31+g(2d,p) geom=connectivity

310 7205/7205.com

0 1
O           7.41000         7.66400        12.32000
C           7.95900         8.20100        13.53200
C           7.50100         9.59800        13.92000
O           7.89400        10.49900        12.87400
H           7.54800        10.02100        12.06700
C           8.13000         9.98600        15.24800
O           7.56000        11.20300        15.75300
H           8.05600        11.27200        16.61800
C           8.30700         5.84900        14.49000
O           8.03000         5.00300        13.36500
H           8.05500         4.01100        13.49000
C           7.64900         7.21000        14.64200
O           8.29500         7.64700        15.84600
C           7.82700         8.92700        16.29500
O           8.44800         9.17700        17.56500
C           7.92800         8.92300        18.87800
C           8.30900         7.49900        19.25100
O           7.78800         6.51500        18.34600
H           7.93100         6.84800        17.41400
C           7.98200         7.05000        20.66600
O           8.56500         5.79500        21.04800
H           8.06500         5.52400        21.87100
C           7.96500        11.19100        19.79900
O           8.34900        11.79700        18.55600
H           8.11100        12.76500        18.62900
C           8.55300         9.79800        19.95200
O           8.06600         9.46100        21.26000
C           8.40900         8.12400        21.65300
O           7.50100         8.00100        22.75800

