# freq=raman b3lyp/6-31+g(2d,p) geom=connectivity

450 8444/8444.com

0 1
C          11.33100         7.28100         2.12700
C          11.99900         8.60100         2.47300
O          13.14400         8.82100         1.63600
H          13.80500         9.33200         2.18600
C          12.73800         8.55200         3.80100
O          13.33300         9.76400         4.28900
H          12.80400        10.55500         3.98200
C          10.21700         5.21700         3.01900
O           9.79700         4.49900         4.18900
H           9.73600         3.59500         3.76500
C          10.54200         6.67900         3.27800
O          11.27000         6.70500         4.51500
C          11.74500         8.02300         4.82200
O          12.36100         7.95200         6.11600
C          11.60900         8.06800         7.33300
C          10.80500         6.85500         7.77200
O          10.02100         6.20500         6.76100
H          10.59000         6.29800         5.94400
C          10.08300         7.22100         9.05900
O           9.33500         6.11200         9.58000
H           8.72900         5.74500         8.87400
C          13.15800         9.86400         8.20400
O          12.54700        11.15900         8.30000
H          12.90200        11.78600         7.60600
C          12.49900         8.52200         8.47800
O          11.79300         8.66700         9.71900
C          11.12100         7.47100        10.14000
O          10.61800         7.54300        11.48200
C          11.47800         7.51000        12.63100
C          11.66400         8.85800        13.30700
O          12.45900         9.63200        12.39600
H          12.36200         9.26900        11.47000
C          12.22700         9.04100        14.70700
O          11.84600        10.27300        15.33700
H          12.41300        10.95400        14.87300
C          10.44900         5.21900        13.23900
O           9.54300         4.78000        14.26100
H           9.28700         3.81400        14.30300
C          11.00800         6.55100        13.71300
O          11.71300         6.70200        14.95400
C          11.59000         7.98200        15.59100
O          12.13100         7.68800        16.88800
C          11.32300         8.13800        17.98500
C          10.41100         6.97000        18.32300
O           9.18600         7.02300        17.57700
H           9.38400         6.93100        16.60200
C           9.83200         7.06200        19.72500
O           9.49900         5.69000        19.98000
H           8.81800         5.49900        19.27300
C          13.08100         9.68100        18.90200
O          12.40400        10.91700        18.63100
H          12.13900        10.94200        17.66700
C          12.12700         8.53800        19.21200
O          11.37600         8.74800        20.41600
C          10.77400         7.51300        20.82900
O          10.10000         7.77900        22.06800
C          10.97400         7.69000        23.20200
C          11.24800         9.12000        23.63900
O          12.33700         9.62700        22.85300
H          12.14100         9.25600        21.94500
C          11.85500         9.32600        25.01700
O          11.90500        10.71100        25.39000
H          12.33700        11.18300        24.62200
C          10.32900         5.48000        23.91900
O           9.53900         4.54900        24.67300
H           9.54600         3.63500        24.26900
C          10.30600         6.94000        24.34200
O          11.17600         7.07400        25.47500
C          11.08900         8.42000        25.96600
O          11.82400         8.27900        27.19000
C          11.08400         8.18400        28.41600
C          10.37300         6.90500        28.82700
O           9.73000         6.27900        27.70600
H          10.30700         6.52900        26.92900
C           9.58700         6.93200        30.12700
O           8.97200         5.68300        30.47400
H           8.58100         5.46500        29.57900
C          12.25800        10.05700        29.29000
O          13.07100        10.81100        30.20100
H          13.95600        10.34600        30.18800
C          12.00600         8.58100        29.55700
O          11.24000         8.58200        30.77000
C          10.64300         7.33200        31.14400
O           9.92100         7.75200        32.31100
C          10.66900         7.70600        33.53500
C          11.17400         8.99300        34.16700
O          11.63500         9.93100        33.18400
H          11.41500         9.51400        32.30100
C          12.19600         8.75100        35.26600
O          12.85800         9.90900        35.79400
H          13.18300        10.37600        34.97100
C           9.65900         5.57900        34.13800
O           8.72200         4.73200        34.81900
H           8.77300         3.87300        34.30900
C           9.95900         6.97300        34.66200
O          10.76300         6.78400        35.83600
C          11.34900         8.01300        36.28900
O          12.05600         7.51200        37.43300
C          11.31300         7.86300        38.60900
C          10.65000         6.61000        39.15600
O           9.89500         5.91000        38.15500
H          10.35100         6.12100        37.29100
C           9.92800         6.72500        40.48800
O           9.09000         5.62600        40.87500
H           8.49200         5.31200        40.13800
C          12.95200         9.56300        39.42800
O          13.29200        10.21000        40.66300
H          12.94000         9.60800        41.38000
C          12.22500         8.26900        39.75500
O          11.59200         8.39800        41.03700
C          11.01400         7.15500        41.46000
O          10.59900         7.46200        42.79900
C           5.59800         3.74300         0.13600
C           5.23000         2.33300        42.52000
O           4.47100         1.57500        41.56600
H           4.86800         1.77300        40.67000
C           4.46300         2.48100         2.03100
O           4.31200         1.15300         2.55500
H           3.78300         0.52000         1.98900
C           6.34700         6.06100         0.91000
O           6.91700         6.91500         1.91200
H           6.64600         7.83000         1.61600
C           6.34800         4.56400         1.17200
O           5.71400         4.49000         2.45800
C           5.37200         3.21000         3.00700
O           4.81600         3.42800         4.31200
C           5.70600         3.60800         5.42400
C           5.84300         5.07800         5.78500
O           6.35500         5.85700         4.69500
H           6.05500         5.46600         3.82500
C           6.71400         5.17600         7.02700
O           6.91200         6.56900         7.30500
H           7.74400         6.72800         6.77300
C           4.63800         1.47900         6.23100
O           5.65800         0.48300         6.07100
H           5.22400        -0.26700         5.57300
C           5.06800         2.88900         6.60200
O           5.79500         3.05300         7.82800
C           5.97300         4.44400         8.13300
O           6.56900         4.13800         9.40200
C           5.92500         4.18600        10.68400
C           5.22800         2.88500        11.04800
O           4.45700         2.25600        10.01400
H           4.95300         2.14000         9.15400
C           4.47900         2.95600        12.36900
O           3.79300         1.71700        12.59700
H           3.32800         1.86400        13.46900
C           7.02600         6.13900        11.82100
O           5.88700         7.00200        11.95800
H           6.26300         7.92700        11.90400
C           6.70000         4.65600        11.90400
O           6.13500         4.51200        13.21500
C           5.44100         3.28800        13.49800
O           4.80600         3.44400        14.77500
C           5.43800         3.71000        16.03500
C           5.63300         5.10600        16.60400
O           6.32700         5.92400        15.65100
H           6.32500         5.52700        14.73300
C           6.34700         4.99000        17.94100
O           6.82800         6.26400        18.39500
H           7.55000         6.65400        17.82300
C           4.16500         1.47700        16.65400
O           5.10300         0.39400        16.74600
H           4.52000        -0.31400        16.34800
C           4.53600         2.91800        16.96600
O           5.07100         3.03200        18.29300
C           5.42200         4.27700        18.91400
O           6.05000         4.14100        20.19700
C           5.34200         3.94000        21.42900
C           5.25500         2.49100        21.88000
O           4.51300         1.71500        20.92800
H           4.77700         1.97100        19.99800
C           4.48900         2.41600        23.19100
O           4.64100         1.11500        23.77800
H           4.24600         0.32600        23.30700
C           6.12700         6.26200        22.23400
O           6.78500         6.80800        23.38600
H           6.98400         7.76700        23.18800
C           6.04600         4.76600        22.49300
O           5.20300         4.60000        23.64200
C           5.18200         3.28800        24.22500
O           4.30000         3.54600        25.32700
C           4.91300         3.84100        26.59100
C           4.98600         5.34300        26.80800
O           5.57100         6.27800        25.89000
H           5.35600         5.98100        24.96000
C           5.72900         5.49500        28.12600
O           5.67600         6.84800        28.60300
H           5.98200         7.42600        27.84700
C           3.83900         1.65500        27.52800
O           4.81800         0.60600        27.54200
H           4.38900        -0.23100        27.20400
C           4.35300         3.06500        27.77200
O           5.22800         3.33400        28.87700
C           5.17500         4.70500        29.30000
O           5.99800         4.53700        30.46300
C           5.38800         4.28000        31.73600
C           5.47500         2.82400        32.16200
O           5.49700         1.82600        31.13100
H           5.48100         2.34600        30.27700
C           4.35900         2.77400        33.19400
O           4.23300         1.37500        33.48900
H           3.69800         0.98000        32.74200
C           5.93000         6.58900        32.39700
O           6.52000         7.46600        33.36800
H           6.30900         8.40600        33.09900
C           5.91300         5.14500        32.87000
O           5.10100         4.84600        34.01400
C           4.92100         3.48000        34.41700
O           4.20100         3.52200        35.65800
C           4.98900         3.60100        36.85500
C           5.17100         4.97200        37.48700
O           5.71200         5.85600        36.49500
H           5.32400         5.72900        35.58200
C           6.13300         5.01200        38.66300
O           6.34100         6.29200        39.27800
H           6.65700         6.97000        38.61500
C           4.39600         1.22100        37.49200
O           5.46600         0.39400        37.01100
H           5.16900        -0.54700        36.85200
C           4.42400         2.67800        37.92200
O           5.33100         2.69200        39.03500
C           5.51700         3.99400        39.60900
O           6.37000         3.68800        40.72200
C          14.18400        14.92900         1.99200
C          14.40100        16.37800         2.39500
O          15.50300        16.98500         1.70500
H          15.63300        16.59500         0.79400
C          14.77200        16.61600         3.85000
O          14.20700        17.90900         4.11000
H          14.73100        18.64800         3.68700
C          13.01500        12.80700         2.83100
O          12.36400        11.92600         3.75700
H          11.43700        12.28900         3.85200
C          13.44700        14.23400         3.12600
O          14.11100        14.31900         4.39500
C          14.13500        15.67600         4.86000
O          14.92900        15.54000         6.04800
C          14.18300        15.62700         7.27100
C          14.18300        14.21100         7.82500
O          13.57000        13.23700         6.96800
H          13.88000        13.46800         6.04600
C          13.65200        14.18600         9.24900
O          14.14700        12.89100         9.62000
H          13.61700        12.09900         9.31700
C          14.85300        17.82700         7.61900
O          15.63100        18.79900         8.33400
H          15.55800        19.70200         7.91100
C          15.03700        16.44600         8.22500
O          14.47000        16.48200         9.54300
C          14.42200        15.16800        10.11600
O          13.71500        15.28200        11.36000
C          14.45900        15.16100        12.58100
C          14.94400        16.53500        13.01500
O          15.93800        17.05700        12.12200
H          15.51200        16.79600        11.25600
C          15.49000        16.58300        14.43200
O          15.51700        17.95900        14.83800
H          15.69000        18.55700        14.05500
C          12.84700        13.24400        13.25100
O          13.29000        12.05200        13.91500
H          13.74100        11.45200        13.25400
C          13.63200        14.47900        13.65900
O          14.21200        14.56200        14.96900
C          14.51300        15.90400        15.37800
O          15.05200        15.92900        16.70800
C          14.29300        15.93700        17.92600
C          14.01200        14.55100        18.48300
O          13.52600        13.67000        17.46000
H          14.03800        13.81500        16.61400
C          13.33900        14.46000        19.84300
O          13.38700        13.10500        20.31200
H          13.01100        12.46000        19.64700
C          15.67000        17.84600        18.64200
O          14.60800        18.79600        18.47300
H          14.93800        19.52100        17.86900
C          15.10500        16.50400        19.07900
O          14.35100        16.59600        20.29700
C          14.04200        15.32100        20.87900
O          13.08300        15.57300        21.91500
C          13.72200        15.63700        23.19900
C          14.35300        16.93400        23.67800
O          15.24300        17.53900        22.72900
H          14.85100        17.32400        21.83400
C          14.91000        16.87600        25.09100
O          15.29100        18.18700        25.53400
H          15.83300        18.62300        24.81700
C          12.03900        13.78800        24.01400
O          12.82400        12.59000        23.93200
H          12.98800        12.43200        22.95800
C          12.84500        15.04700        24.29100
O          13.66000        14.92200        25.46500
C          13.94400        16.20100        26.05100
O          14.65200        15.84800        27.24900
C          13.99100        16.32600        28.42900
C          13.03400        15.23400        28.87700
O          11.73400        15.81100        29.06500
H          11.47800        16.24500        28.20200
C          13.44700        14.33600        30.03300
O          14.07800        13.13800        29.55800
H          13.60100        12.31400        29.86300
C          15.80500        17.92000        29.16600
O          14.94500        19.06200        29.29400
H          15.48700        19.81600        28.92200
C          15.09800        16.60100        29.43300
O          14.64400        16.41500        30.78100
C          14.25400        15.07000        31.09100
O          13.35300        15.50000        32.12200
C          13.99500        15.30100        33.39000
C          14.25000        16.60200        34.13400
O          14.73000        17.61800        33.24000
H          14.40400        17.34200        32.33600
C          15.02800        16.35400        35.41500
O          15.34900        17.63400        35.97900
H          15.29400        18.35600        35.28900
C          12.30700        13.30400        33.86400
O          13.19300        12.19100        33.67500
H          12.71100        11.39700        33.30300
C          13.16900        14.45800        34.34800
O          14.04000        14.25900        35.47000
C          14.28600        15.38700        36.32300
O          15.07800        14.87500        37.40400
C          14.41200        15.59100        38.45400
C          13.41300        14.58200        38.99600
O          12.27300        15.45100        39.05700
H          11.63300        15.49500        38.29000
C          13.80800        13.71600        40.18200
O          14.65300        12.58300        39.93400
H          14.08900        11.76400        40.04000
C          15.67700        17.47700        39.43800
O          16.41400        18.10000        40.50000
H          17.37100        17.81600        40.43100
C          15.28800        16.01900        39.61900
O          14.86200        15.76200        40.96600
C          14.41500        14.45800        41.36200
O          13.63700        14.60900        42.55800
C           8.41500        11.67400        40.97000
C           7.82100        10.41200        41.57300
O           6.86500         9.80000        40.69400
H           7.21000         9.62200        39.77300
C           7.01400        10.73400         1.04100
O           6.20200         9.62400         1.45000
H           5.23700         9.86600         1.34200
C           9.66200        13.68900        -0.15200
O          10.65800        14.39400         0.60400
H          11.30200        14.87000         0.00500
C           9.27900        12.26400         0.21200
O           8.70000        12.37100         1.52100
C           8.07600        11.18500         2.03100
O           7.40000        11.62200         3.21900
C           8.14600        11.27100         4.39300
C           8.86400        12.45300         5.02300
O           9.86600        12.97500         4.13900
H           9.35800        13.09400         3.28600
C           9.44100        12.19600         6.40500
O           9.98000        13.44600         6.86100
H          10.37900        13.86200         6.04300
C           7.04200         9.04700         4.94600
O           7.89300         7.90200         5.09700
H           7.38900         7.05900         4.91000
C           7.32200        10.47300         5.39100
O           7.66600        10.47200         6.78500
C           8.23900        11.71900         7.20400
O           8.69200        11.47200         8.54300
C           8.00100        11.82500         9.75000
C           7.30000        10.56100        10.22100
O           6.30900        10.26700         9.22500
H           6.85600        10.21000         8.39000
C           6.70500        10.82300        11.59500
O           6.09300         9.61500        12.06900
H           5.10800         9.78400        12.02600
C           9.48500        13.82300        10.26200
O           8.77700        14.92800         9.68200
H           9.41200        15.67900         9.50100
C           8.97500        12.46800        10.72400
O           8.20400        12.71000        11.91000
C           7.67700        11.52700        12.52800
O           7.09700        11.94000        13.77400
C           7.89900        11.70300        14.94000
C           8.65100        12.93200        15.42400
O           9.57700        13.32800        14.40200
H           9.06300        13.25900        13.54700
C           9.26700        12.57800        16.76700
O          10.28700        13.53900        17.07300
H          10.73800        13.63500        16.18500
C           6.51300         9.69700        15.61100
O           7.39600         8.56900        15.69800
H           6.95300         7.68100        15.82200
C           7.02600        11.07100        16.01100
O           7.62700        10.96200        17.31000
C           8.25700        12.14700        17.81900
O           9.03500        11.96700        19.01100
C           8.38700        12.12600        20.28100
C           7.87000        10.82100        20.86600
O           6.99200        10.27700        19.87000
H           7.59600        10.04600        19.10600
C           7.00500        10.92700        22.11100
O           6.45300         9.67100        22.53400
H           5.65300         9.36100        22.02100
C           9.64700        14.07300        20.82200
O           8.70000        15.12200        20.57400
H           9.14700        15.95500        20.24800
C           9.14200        12.77400        21.43000
O           8.29500        12.88000        22.58400
C           7.91300        11.60600        23.12300
O           7.18700        11.84700        24.33700
C           8.08300        11.84400        25.45800
C           8.39700        13.21600        26.03100
O           8.82400        14.05500        24.94800
H           8.23100        13.85400        24.16900
C           9.20700        13.07100        27.30900
O           9.44700        14.34300        27.92900
H           9.94400        14.18000        28.78100
C           6.97600         9.64000        26.11900
O           6.53600         8.41700        26.72600
H           6.38000         7.66800        26.08200
C           7.30400        11.07200        26.51100
O           8.18500        10.99800        27.64000
C           8.37000        12.26500        28.28800
O           9.04300        11.92400        29.50900
C           8.12600        12.22700        30.57000
C           7.18300        11.09500        30.94500
O           6.18500        10.73700        29.97700
H           6.58200        10.36100        29.14000
C           6.61400        11.09700        32.35400
O           5.72000        10.03700        32.72300
H           4.75700        10.28000        32.84100
C           9.58300        14.04200        31.46100
O           8.67400        15.10500        31.78500
H           9.16400        15.95300        31.58000
C           9.06700        12.63100        31.69300
O           8.44400        12.60200        32.98500
C           7.78000        11.36700        33.29100
O           7.21200        11.51700        34.60000
C           8.04400        11.41500        35.76500
C           8.13200        12.78300        36.42100
O           8.79400        13.64400        35.48400
H           8.48800        13.45200        34.55100
C           8.85800        12.80800        37.75600
O           8.98100        14.08300        38.40100
H           9.55300        14.60000        37.76400
C           7.15400         8.96900        36.33200
O           6.42700         8.18800        37.29200
H           6.05400         7.43200        36.75300
C           7.36700        10.42700        36.70200
O           8.11300        10.43000        37.92900
C           8.21300        11.70500        38.58000
O           9.00000        11.30700        39.71200
C          16.47800        22.85500         2.59300
C          17.72700        23.66300         2.90500
O          18.94900        23.17500         2.33100
H          18.76200        22.57000         1.55700
C          18.21000        23.83800         4.33500
O          18.98700        25.01400         4.60200
H          19.77000        24.92900         3.98700
C          14.79000        21.31500         3.61300
O          15.41900        20.07300         3.26600
H          15.53600        19.93300         2.28300
C          15.55300        22.62000         3.77600
O          16.35500        22.51000         4.96100
C          17.14900        23.62100         5.40200
O          17.77700        23.27300         6.64500
C          16.92700        23.28700         7.80100
C          16.64600        21.97100         8.50900
O          15.86400        21.21900         7.57100
H          15.96200        21.62000         6.66000
C          15.88500        21.94500         9.82400
O          15.95000        20.63900        10.41500
H          15.70400        19.95200         9.73100
C          17.48600        25.72600         8.42900
O          17.90000        26.69300         9.40500
H          17.58700        27.59500         9.11000
C          17.40700        24.26900         8.85700
O          16.55000        24.19000        10.00500
C          16.44600        22.98600        10.77900
O          15.59100        23.33600        11.87700
C          16.36800        23.24500        13.08000
C          16.99000        24.42700        13.80600
O          17.84500        25.03100        12.82500
H          17.29900        25.15000        11.99500
C          17.78600        24.06400        15.04900
O          18.33700        25.32800        15.44500
H          19.12800        25.38200        14.83500
C          14.88300        21.26400        13.68500
O          15.63100        20.09900        13.30600
H          15.95200        20.11600        12.35900
C          15.52100        22.56500        14.14400
O          16.25200        22.34600        15.35900
C          16.72800        23.53700        16.00400
O          17.47400        22.98400        17.09800
C          16.73900        23.28700        18.29300
C          16.32900        21.92800        18.83700
O          15.51600        21.12000        17.97400
H          15.63700        21.56400        17.08700
C          15.59300        22.23500        20.13100
O          15.07300        20.95000        20.50400
H          14.45300        20.52600        19.84300
C          17.89000        25.43700        18.93600
O          18.76000        26.39600        19.55500
H          18.42700        27.26600        19.19100
C          17.62800        23.98700        19.30900
O          17.26300        23.97400        20.69600
C          16.58100        22.79400        21.14300
O          16.00500        23.02500        22.43700
C          16.87200        22.90200        23.57300
C          17.64200        24.14200        23.99700
O          18.54500        24.79300        23.09100
H          18.26600        24.53200        22.16700
C          18.33100        24.01400        25.34600
O          18.85600        25.26500        25.81500
H          19.36300        25.59300        25.01800
C          15.39000        20.93200        24.17600
O          16.12000        19.86700        23.55000
H          15.35900        19.61200        22.95400
C          16.10700        22.17800        24.67000
O          16.95100        22.09600        25.82700
C          17.41000        23.34900        26.35500
O          17.94500        23.05400        27.65300
C          16.96600        23.41400        28.63900
C          16.57300        22.11200        29.31800
O          15.79500        21.38800        28.35400
H          16.26500        21.35000        27.47200
C          15.80500        22.13900        30.62900
O          15.42500        20.91300        31.27100
H          15.07200        20.31100        30.55500
C          17.72800        25.67900        29.40100
O          18.59900        26.56300        30.12100
H          18.47200        27.48500        29.75500
C          17.55600        24.21900        29.78600
O          16.86900        24.22900        31.04600
C          16.67600        22.92000        31.60000
O          15.88300        23.23200        32.75400
C          16.54400        22.94000        33.99300
C          17.03000        24.24900        34.59500
O          17.84100        25.07800        33.75000
H          17.47800        25.07900        32.81900
C          17.72000        24.00300        35.92600
O          18.24800        25.30500        36.22200
H          18.56100        25.61800        35.32500
C          15.47200        20.98700        34.54100
O          14.48700        20.09800        35.08600
H          13.74100        20.63000        35.48600
C          15.56900        22.42000        35.03700
O          15.97800        22.30700        36.40700
C          16.64500        23.49000        36.87100
O          17.23200        22.99800        38.08400
C          16.45000        23.21700        39.26700
C          16.32300        21.79600        39.79000
O          15.46600        21.14100        38.84400
H          15.78800        21.46100        37.95300
C          15.79800        21.70000        41.21300
O          16.35000        20.50700        41.78900
H          16.19800        19.70700        41.20800
C          17.37600        25.62200        39.78700
O          18.34300        26.33700        40.57000
H          18.39300        27.25800        40.18400
C          17.20200        24.16600        40.18600
O          16.31600        24.00700        41.30400
C          16.36100        22.80600        42.09000
O          15.71600        23.16600        43.32000
C          11.14500        19.21600        41.66700
C          11.03500        17.78700        42.17500
O          10.61500        16.97100        41.07200
H          11.17800        17.38600        40.35800
C          10.11000        17.86000         1.59500
O          10.08900        16.60000         2.28000
H          10.06500        15.95300         1.51900
C          11.94100        21.64000         0.63400
O          10.93700        22.57100         0.20400
H          11.46500        23.38800        -0.02600
C          11.56400        20.19900         0.93600
O          10.61300        20.18900         2.01000
C          10.56800        18.88900         2.61600
O           9.69500        19.28000         3.68500
C          10.45300        19.25900         4.90300