# freq=raman b3lyp/6-31+g(2d,p) geom=connectivity

473 8000/8000.com

0 1
O           7.33200         7.31500        12.32600
C           8.04600         7.78600        13.47900
C           7.69600         9.21900        13.84500
O           8.12900        10.25700        12.95300
H           7.97700        10.00600        11.99700
C           7.97000         9.59300        15.29300
O           7.05600        10.66600        15.56100
H           7.26500        11.02500        16.47100
C           8.32900         5.46700        14.41800
O           7.92000         4.72200        13.26200
H           8.08500         3.77300        13.53300
C           7.68600         6.83100        14.60600
O           8.23300         7.18700        15.88400
C           7.70900         8.46400        16.27600
O           8.41300         8.77100        17.48800
C           7.88100         8.27900        18.72700
C           8.39900         6.93200        19.20400
O           8.04900         5.95000        18.21700
H           8.39600         6.17900        17.30700
C           7.86200         6.45000        20.54200
O           8.56700         5.28300        20.99000
H           8.26800         4.94700        21.88300
C           7.58800        10.72800        19.54300
O           7.91800        11.49500        18.37600
H           7.69400        12.45000        18.57400
C           8.14200         9.33400        19.79000
O           7.58500         8.93300        21.05000
C           8.09000         7.65000        21.44600
O           7.55600         7.44800        22.76300

