# freq=raman b3lyp/6-31+g(2df,p) geom=connectivity

350 5000.com

0 1
 O                  8.00500000    7.80200000   12.22500000
 C                  8.58500000    8.18300000   13.48100000
 C                  8.04100000    9.51400000   13.97400000
 O                  8.29900000   10.61300000   13.08800000
 H                  8.31600000   10.24200000   12.16000000
 C                  8.53700000    9.81700000   15.37800000
 O                  7.90000000   11.03100000   15.79900000
 H                  8.16400000   11.14600000   16.75700000
 C                  8.62700000    5.72600000   14.26000000
 O                  8.53700000    4.99100000   13.03100000
 H                  8.60700000    4.00300000   13.16600000
 C                  8.16000000    7.15000000   14.51300000
 O                  8.76000000    7.43400000   15.78500000
 C                  8.20000000    8.65300000   16.29500000
 O                  9.03800000    8.69000000   17.46000000
 C                  8.32400000    8.50800000   18.69100000
 C                  8.58500000    7.14100000   19.30300000
 O                  8.14600000    6.05300000   18.47700000
 H                  8.07200000    6.39400000   17.54000000
 C                  8.20000000    6.71400000   20.71100000
 O                  8.88800000    5.54600000   21.18200000
 H                  8.54800000    5.21200000   22.06100000
 C                  7.92500000   10.84300000   19.32800000
 O                  8.61800000   11.63800000   18.35500000
 H                  8.43700000   12.61800000   18.43900000
 C                  8.63900000    9.56400000   19.73700000
 O                  8.03200000    9.24900000   20.99900000
 C                  8.48400000    7.98200000   21.49900000
 O                  7.64800000    7.83700000   22.65600000
 H                  8.19712464    7.73908072   23.43732832
 H                  9.51409889    8.03083085   21.78432756
 H                  7.14746545    6.52308691   20.73596440
 H                  9.65261785    7.06976439   19.29880184
 H                  7.27885620    8.57129807   18.47061899
 H                  9.69300668    9.71943071   19.83605156
 H                  7.77413267   11.43897040   20.20376157
 H                  6.96768937   10.58090505   18.92829687
 H                  8.70352585    7.61084044   11.59482569
 H                  9.66653151    5.72246900   14.51349906
 H                  7.09460086    7.16286331   14.61128132
 H                  9.65174835    8.21901494   13.40582760
 H                  6.97788495    9.40970178   14.03571127
 H                  9.59729299    9.95943207   15.35820389
 H                  7.15887440    8.57270767   16.52847512
 H                  8.11071267    5.12893087   14.98239590

 1 2 1.0 38 1.0
 2 3 1.0 12 1.0 41 1.0
 3 4 1.0 6 1.0 42 1.0
 4 5 1.0
 5
 6 7 1.0 14 1.0 43 1.0
 7 8 1.0
 8
 9 10 1.0 12 1.0 39 1.0 45 1.0
 10 11 1.0
 11
 12 13 1.0 40 1.0
 13 14 1.0
 14 15 1.0 44 1.0
 15 16 1.0
 16 17 1.0 26 1.0 34 1.0
 17 18 1.0 20 1.0 33 1.0
 18 19 1.0
 19
 20 21 1.0 28 1.0 32 1.0
 21 22 1.0
 22
 23 24 1.0 26 1.0 36 1.0 37 1.0
 24 25 1.0
 25
 26 27 1.0 35 1.0
 27 28 1.0
 28 29 1.0 31 1.0
 29 30 1.0
 30
 31
 32
 33
 34
 35
 36
 37
 38
 39
 40
 41
 42
 43
 44
 45

