# freq=raman b3lyp/6-31+g(2df,p) geom=connectivity

550 8000.com

0 1
 O                  9.54500000    7.58500000   11.45200000
 C                 10.30100000    7.49800000   12.66800000
 C                 10.33600000    8.88100000   13.29700000
 O                 11.31000000    9.73200000   12.67700000
 H                 11.20000000    9.45700000   11.72200000
 C                 10.93200000    8.91100000   14.69500000
 O                 10.53200000   10.15600000   15.28600000
 H                 10.79900000   10.95500000   14.74600000
 C                  9.53800000    5.13800000   13.12900000
 O                  8.94800000    4.09500000   13.91800000
 H                  8.64600000    3.36200000   13.30800000
 C                  9.72200000    6.53700000   13.69300000
 O                 10.58500000    6.59000000   14.83900000
 C                 10.58900000    7.77700000   15.64600000
 O                 11.44600000    7.80500000   16.79700000
 C                 10.78800000    7.60700000   18.05700000
 C                 10.27900000    6.23400000   18.46600000
 O                  9.46400000    5.59000000   17.47600000
 H                  9.82500000    5.74000000   16.55600000
 C                  9.53500000    6.24600000   19.79100000
 O                  9.21100000    4.88300000   20.10200000
 H                  9.03000000    4.55600000   19.17500000
 C                 12.35400000    9.39900000   18.78700000
 O                 11.80100000   10.54900000   18.13100000
 H                 11.52900000   10.29700000   17.20200000
 C                 11.71800000    8.07200000   19.16600000
 O                 10.88400000    8.13000000   20.33200000
 C                 10.33600000    6.92600000   20.89000000
 O                  9.67500000    7.40200000   22.07100000
 H                 10.33087198    7.66406076   22.72119697
 H                 11.13904385    6.28119997   21.18026455
 H                  8.62133395    6.78696548   19.65882325
 H                 11.14217110    5.61663885   18.60275112
 H                  9.94107845    8.26089291   18.06392475
 H                 12.48521013    7.34119372   19.31503288
 H                 13.19044822    9.12563329   18.17829234
 H                 12.73588774    9.78113083   19.71060044
 H                 10.14555558    7.63844812   10.70495496
 H                 10.50529846    4.79290640   12.82875994
 H                  8.94398472    5.23391128   12.24421366
 H                  8.76023655    6.90365600   13.98536011
 H                 11.30070926    7.19624385   12.43470913
 H                  9.36790783    9.33655739   13.28415378
 H                 11.99662572    8.92881901   14.58938483
 H                  9.58808142    7.93414488   15.99004576

 1 2 1.0 38 1.0
 2 3 1.0 12 1.0 42 1.0
 3 4 1.0 6 1.0 43 1.0
 4 5 1.0
 5
 6 7 1.0 14 1.0 44 1.0
 7 8 1.0
 8
 9 10 1.0 12 1.0 39 1.0 40 1.0
 10 11 1.0
 11
 12 13 1.0 41 1.0
 13 14 1.0
 14 15 1.0 45 1.0
 15 16 1.0
 16 17 1.0 26 1.0 34 1.0
 17 18 1.0 20 1.0 33 1.0
 18 19 1.0
 19
 20 21 1.0 28 1.0 32 1.0
 21 22 1.0
 22
 23 24 1.0 26 1.0 36 1.0 37 1.0
 24 25 1.0
 25
 26 27 1.0 35 1.0
 27 28 1.0
 28 29 1.0 31 1.0
 29 30 1.0
 30
 31
 32
 33
 34
 35
 36
 37
 38
 39
 40
 41
 42
 43
 44
 45

