# freq=raman b3lyp/6-31+g(2d,p) geom=connectivity

400 5151/5151.com

0 1
C           9.19100         7.73000         3.01800
C           9.10800         9.16500         3.51100
O           9.59900        10.07400         2.51500
H           9.51200         9.64100         1.61800
C           9.92800         9.36500         4.77600
O           9.77600        10.68400         5.32100
H          10.34200        10.75300         6.14200
C           9.03200         5.39300         3.65100
O           8.19700         4.87500         2.60500
H           8.41400         3.91800         2.41200
C           8.73600         6.80400         4.13400
O           9.59700         7.09800         5.24400
C           9.53400         8.38700         5.87100
O          10.50500         8.42900         6.92600
C           9.82600         8.24300         8.17600
C          10.15800         6.84200         8.66500
O           9.53900         5.88600         7.79200
H           9.61000         6.32600         6.89700
C           9.66400         6.56600        10.07600
O          10.18000         5.41200        10.75500
H           9.72700         5.21800        11.62500
C          10.10700        10.60100         9.06600
O          10.40400        11.20100         7.79700
H          10.12000        12.15600         7.88900
C          10.46000         9.13100         9.23300
O           9.83500         8.98000        10.51600
C          10.01100         7.66600        11.06600
O           9.20100         7.59000        12.24800
C           9.76200         7.92700        13.52500
C           9.38900         9.33700        13.95500
O           9.88200        10.29900        13.01200
H           9.79000         9.87000        12.11300
C           9.78400         9.76200        15.35900
O           8.94000        10.83300        15.80700
H           9.51900        11.33300        16.45100
C           9.43900         5.49400        14.33400
O           8.81500         4.81500        13.23500
H           8.80500         3.87500        13.57500
C           9.17800         6.97500        14.55700
O           9.71200         7.34100        15.83700
C           9.44000         8.65600        16.34400
O          10.25900         8.64700        17.52200
C           9.58500         8.35000        18.75300
C           9.91000         6.93100        19.19200
O           9.52400         5.91900        18.25100
H           9.70600         6.25900        17.32900
C           9.39000         6.60400        20.58200
O           9.82300         5.36400        21.15900
H           9.46600         5.18000        22.07500
C           9.76100        10.77200        19.66600
O          10.36200        11.55300        18.62200
H          10.18000        12.51900        18.80500
C          10.03200         9.28900        19.86100
O           9.49900         8.99500        21.16000
C           9.61800         7.65400        21.65700
O           8.81600         7.62500        22.84700
C           9.62100         7.78400        24.02500
C           9.23200         9.08400        24.71000
O           9.51500        10.11000        23.74800
H           9.62100         9.58100        22.90600
C           9.86200         9.43300        26.04900
O           9.24600        10.59500        26.62300
H           9.69500        10.66000        27.51400
C           9.52300         5.26800        24.81000
O           9.12200         4.73200        23.54000
H           8.99400         3.74200        23.59300
C           9.23900         6.74000        25.06200
O           9.81900         6.98800        26.35100
C           9.41400         8.25200        26.89600
O          10.20200         8.34500        28.09100
C           9.61400         8.06300        29.37000
C           9.72300         6.66500        29.95700
O           9.69000         5.74200        28.85800
H           9.92100         6.08300        27.94700
C           8.97500         6.42500        31.25800
O           9.34300         5.14700        31.79600
H           9.24600         4.94900        32.77200
C           9.90900        10.54700        30.07300
O          10.62300        11.11400        28.96500
H          10.52000        12.10700        28.90100
C          10.04000         9.07400        30.42200
O           9.36600         8.83800        31.66700
C           9.49000         7.50800        32.19200
O           8.66500         7.71300        33.34700
C           9.39800         7.83600        34.57500
C           9.03000         9.20500        35.12400
O           9.26600        10.26300        34.18500
H           9.21500         9.88500        33.26100
C           9.67300         9.64600        36.42900
O           9.30800        10.93700        36.94000
H           9.84500        10.97000        37.78200
C           9.30600         5.34900        35.42200
O           8.86000         4.68100        34.23300
H           8.93700         3.68700        34.31800
C           8.96100         6.81700        35.61400
O           9.61100         7.14600        36.85000
C           9.38900         8.47200        37.35100
O          10.24200         8.43300        38.50400
C           9.45500         8.30300        39.69700
C           9.45400         6.87600        40.21800
O           9.27300         5.99100        39.10300
H           9.57200         6.37800        38.23100
C           8.65900         6.76000        -0.47200
O           8.67100         5.36300        -0.14400
H           8.19700         5.22100         0.72500
C          10.09600        10.64300        40.58500
O          10.43200        11.33200        39.37200
H          10.16000        12.29200        39.31000
C          10.07900         9.13800        -1.18100
O           9.45800         8.93400         0.09600
C           9.42000         7.57700         0.56000
O           8.58400         7.58100         1.72600
C           4.25400         3.57000         0.31600
C           4.24400         2.23500         1.04200
O           3.75900         1.22300         0.14700
H           4.20500         1.45600        -0.71600
C           3.54400         2.19400         2.39100
O           3.86700         0.96000         3.04900
H           3.53700         0.27800         2.39700
C           4.23700         6.05900         0.72400
O           4.40300         7.32100         1.38700
H           4.28100         8.14300         0.83000
C           4.63000         4.69500         1.26700
O           4.10800         4.52700         2.59300
C           4.24000         3.25000         3.23500
O           3.54000         3.48800         4.46400
C           4.33500         3.53500         5.65800
C           4.39400         4.93400         6.24900
O           4.88100         5.85500         5.26300
H           4.51900         5.54000         4.38600
C           5.16600         5.01200         7.55600
O           5.28100         6.38800         7.94800
H           5.82900         6.91900         7.30200
C           3.41900         1.24300         6.21900
O           4.43200         0.22700         6.22400
H           4.14600        -0.43800         5.53400
C           3.76300         2.63000         6.73700
O           4.43100         2.70100         8.00500
C           4.36600         4.06700         8.43800
O           5.13200         3.91800         9.64300
C           4.64100         3.89800        10.99100
C           4.52200         2.49100        11.55400
O           3.93800         1.47800        10.72200
H           4.29100         1.53000         9.78800
C           3.77600         2.53600        12.87800
O           3.56600         1.24100        13.46000
H           3.00200         0.73200        12.81100
C           5.79800         6.05000        11.69400
O           4.68700         6.93600        11.49500
H           4.97300         7.72200        10.94800
C           5.46900         4.61000        12.04900
O           4.92100         4.69500        13.37200
C           4.58200         3.38400        13.84800
O           3.92600         3.82900        15.04400
C           4.89700         3.61300        16.07900
C           5.27700         4.96000        16.67200
O           5.98500         5.72200        15.68300
H           5.64600         5.27400        14.85600
C           5.93800         4.92600        18.04000
O           6.12500         6.31200        18.36400
H           6.52600         6.69200        17.53000
C           4.15100         1.21900        16.76000
O           5.01600         0.07600        16.81900
H           4.81100        -0.59000        16.10100
C           4.27300         2.69300        17.11500
O           4.96900         2.80700        18.36400
C           5.11000         4.08700        18.99900
O           5.65300         3.70500        20.27100
C           4.73700         3.64900        21.37500
C           4.84500         2.15900        21.65500
O           4.48100         1.21900        20.63400
H           4.98100         1.37700        19.78300
C           4.10600         1.89600        22.95700
O           4.28500         0.54400        23.40300
H           3.86900        -0.05700        22.72000
C           5.55200         5.94300        22.07900
O           4.52900         6.89500        21.75200
H           4.94200         7.79800        21.63400
C           5.36500         4.48800        22.47600
O           4.72300         4.13500        23.71000
C           4.69500         2.74600        24.07000
O           3.89300         2.76500        25.25900
C           4.55500         2.98400        26.51300
C           4.37800         4.43500        26.93000
O           4.83200         5.50700        26.09100
H           4.63800         5.25300        25.14400
C           4.98900         4.62700        28.30900
O           4.76800         5.95800        28.79800
H           5.13600         6.59800        28.12400
C           6.80000        33.08500        27.04800
O           8.02900        32.34400        27.06200
H           8.01400        31.75400        26.25500
C           3.96100         2.05100        27.55600
O           4.52600         2.33000        28.84500
C           4.28800         3.68000        29.26900
O           5.02800         3.65100        30.49800
C           4.39800         3.44600        31.77100
C           4.64200         2.04200        32.30100
O           3.99200         1.06800        31.47100
H           4.34100         1.30800        30.56500
C           4.18300         1.84300        33.73600
O           4.68500         0.53300        34.04000
H           4.55000        -0.02200        33.22000
C           5.42700         5.70400        32.48000
O           4.32000         6.61500        32.52000
H           4.62800         7.51200        32.20300
C           5.01900         4.29300        32.87000
O           4.32200         4.22400        34.12300
C           4.66300         2.94200        34.67000
O           3.86900         3.01800        35.86300
C           4.61000         3.09200        37.09000
C           4.58000         4.47200        37.72600
O           5.20300         5.30800        36.74100
H           4.73200         4.99400        35.91600
C           5.34300         4.64100        39.03000
O           5.33700         5.97900        39.54800
H           5.69000         6.51800        38.78300
C           3.49900         0.86600        37.73700
O           4.62200         0.00200        37.50900
H           4.24300        -0.77700        37.00900
C           3.97000         2.24300        38.17600
O           4.64700         2.35200        39.43600
C           4.66600         3.67600        39.98900
O           5.25900         3.46000        41.27800
C          10.17500        15.90400         2.98100
C           9.91800        17.30200         3.52000
O          10.06900        18.28700         2.48800
H           9.67900        17.88300         1.66000
C          10.54400        17.48900         4.89200
O          10.16600        18.77900         5.39600
H          10.60500        18.89700         6.28600
C          10.01700        13.46500         3.85100
O           9.71100        12.81500         2.60900
H           9.71300        11.82600         2.75800
C           9.72700        14.94100         4.06900
O          10.42400        15.09900         5.31400
C          10.22900        16.39400         5.89900
O          11.09000        16.63200         7.02100
C          10.42800        16.45000         8.28100
C          10.69100        15.03900         8.78000
O          10.33400        14.05600         7.79700
H          10.52900        14.43300         6.89200
C           9.97500        14.75500        10.09000
O          10.21400        13.44800        10.63300
H           9.90200        13.32000        11.57400
C          10.63000        18.90900         9.13200
O          11.18200        19.54000         7.96700
H          10.87100        20.47500         8.13900
C          10.82900        17.42200         9.37800
O           9.98900        17.03100        10.47400
C          10.46300        15.81300        11.06600
O           9.72200        15.75000        12.29400
C          10.33500        16.06600        13.55300
C           9.75700        17.39400        14.01500
O           9.74800        18.33700        12.93400
H           9.53800        17.82900        12.09800
C          10.26200        17.81200        15.38600
O           9.70600        19.09300        15.71700
H           9.93500        19.31500        16.66500
C          10.50500        13.72700        14.25800
O          10.03900        12.93300        13.15800
H          10.22700        11.97200        13.36100
C           9.93100        15.08200        14.63900
O          10.63800        15.38900        15.84900
C          10.02300        16.61000        16.28600
O          10.75400        16.78400        17.50800
C          10.23200        16.36100        18.77600
C          10.62700        14.99000        19.30000
O          10.23400        14.12700        18.22300
H          10.47700        14.55900        17.35500
C           9.91600        14.53500        20.56400
O          10.51100        13.35800        21.12900
H          10.13300        13.30400        22.05300
C           9.91700        18.76600        19.67300
O          10.14600        19.27300        18.35000
H          10.05700        20.26400        18.44600
C          10.56900        17.40200        19.83100
O           9.96400        16.95000        21.05000
C          10.34200        15.64500        21.51200
O           9.61200        15.48300        22.73700
C          10.35200        15.78400        23.92900
C          10.26900        17.20600        24.45900
O          10.91300        18.07800        23.52000
H          10.75400        17.81700        22.56700
C          10.85800        17.48300        25.83300
O          10.57700        18.84500        26.18700
H          10.64400        18.79500        27.18400
C           9.96100        13.46500        24.81000
O           9.61000        12.85500        23.56000
H           9.57300        11.86500        23.69500
C           9.75000        14.95200        25.04800
O          10.32700        15.08600        26.35500
C          10.23900        16.45700        26.76800
O          10.96600        16.50200        28.00400
C          10.23300        16.26500        29.21500
C          10.35100        14.81300        29.64900
O          10.11500        13.83400        28.62700
H          10.43900        14.20700        27.75700
C           9.49900        14.68600        30.90100
O           9.76400        13.37000        31.40800
H           9.48300        13.25500        32.36000
C          10.26400        18.68600        29.97100
O          10.70300        19.37800        28.79300
H          10.60800        20.37400        28.80500
C          10.73700        17.26700        30.24100
O          10.13700        17.00100        31.51700
C           9.97300        15.65100        31.97600
O           9.10300        15.73600        33.11400
C           9.82700        16.01500        34.32100
C           9.54000        17.44600        34.74700
O          10.21100        18.35700        33.86400
H          10.10900        18.02100        32.92800
C          10.17200        17.77900        36.08900
O           9.64000        19.00200        36.61800
H           9.99900        19.18600        37.53300
C           9.74600        13.71700        35.27900
O           9.27000        13.01100        34.12400
H           9.23000        12.01300        34.17600
C           9.32100        15.16300        35.47300
O          10.08300        15.45100        36.65400
C           9.82100        16.76600        37.16600
O          10.61000        16.94700        38.35100
C          10.02800        16.48600        39.57900
C          10.42800        15.13400        40.14700
O          10.26600        14.11300        39.15200
H          10.08400        14.52500        38.25800
C           9.73600        14.72200        -0.54500
O          10.31700        13.57500         0.09200
H           9.89900        13.54700         1.00000
C          10.19800        18.89300        40.50500
O          10.71400        19.44000        39.28200
H          10.98400        20.37000        39.53400
C          10.22100        17.39800        -1.20400
O           9.49600        17.06900        -0.01000
C           9.90300        15.79700         0.51700
O           9.40800        15.51400         1.83300
C           5.32600        12.05300         0.57300
C           5.39700        10.65600         1.16900
O           4.58700         9.77700         0.37500
H           4.72800        10.01500        -0.58600
C           4.69500        10.73600         2.51400
O           4.69400         9.42600         3.10000
H           4.24200         8.77000         2.49600
C           5.93500        14.30300         1.17300
O           4.64000        14.91700         1.25500
H           4.75200        15.74100         0.70000
C           6.12600        12.85300         1.58800
O           5.51100        12.93400         2.88200
C           5.50900        11.61500         3.44900
O           4.84500        11.85700         4.69900
C           5.71800        11.59000         5.80600
C           5.92400        12.96700         6.41400
O           6.58200        13.92200         5.56800
H           6.25700        13.94900         4.62300
C           6.65900        12.91000         7.74400
O           6.64100        14.21400         8.34200
H           6.71500        14.89600         7.61400
C           4.70300         9.28500         6.40700
O           5.82500         8.43000         6.14400
H           5.52000         7.79000         5.43800
C           5.11700        10.67500         6.86100
O           5.97600        10.75600         8.00800
C           5.87500        12.01500         8.68900
O           6.53000        11.75200         9.93900
C           5.82500        11.73400        11.18800
C           5.82800        10.30500        11.70600
O           5.24600         9.38400        10.77300
H           5.57200         9.60500         9.85400
C           5.18100        10.16400        13.07500
O           5.41000         8.94200        13.79300
H           4.95100         8.16400        13.36300
C           6.38900        14.11200        11.59600
O           5.24300        14.90900        11.26500
H           5.41700        15.38200        10.40200
C           6.34600        12.72500        12.21600
O           5.66300        12.61100        13.47300
C           5.63600        11.27800        14.00300
O           4.63600        11.30500        15.03100
C           5.23100        11.46600        16.32700
C           5.11700        12.89500        16.83100
O           5.64800        13.82400        15.87500
H           5.63900        13.29900        15.02400
C           5.79900        13.15300        18.16500
O           5.50200        14.44600        18.71300
H           5.62300        15.07800        17.94700
C           4.80600         9.19400        17.12700
O           5.97100         8.69200        16.45700
H           5.80400         8.45900        15.49900
C           4.58800        10.66400        17.44600
O           5.34500        10.89000        18.64400
C           5.27700        12.19900        19.22700
O           5.99500        12.00300        20.45400
C           5.30500        11.95100        21.71100
C           5.40100        10.49600        22.13900
O           5.14600         9.46300        21.17600
H           5.48700         9.88200        20.33400
C           4.61300        10.35100        23.43100
O           4.34000         9.03600        23.93800
H           3.77000         8.57900        23.25500
C           6.27500        14.18700        22.55400
O           5.21800        15.04700        22.10500
H           5.52800        15.76500        21.48200
C           5.90100        12.74600        22.86100
O           5.10200        12.64000        24.04800
C           5.24800        11.27300        24.46000
O           4.59800        11.28700        25.74000
C           5.51400        11.36200        26.84200
C           5.52700        12.75300        27.45400
O           6.13200        13.60700        26.47200
H           5.60600        13.29400        25.68100
C           6.01300        12.90500        28.88600
O           5.82500        14.21800        29.43300
H           6.35000        14.90900        28.93600
C           4.77000         8.95200        27.35600
O           5.75900         7.94000        27.11500
H           5.45400         7.17400        26.55000
C           4.98800        10.36800        27.86400
O           5.67900        10.43400        29.12000
C           5.51400        11.73100        29.71200
O           6.20900        11.64300        30.96500
C           5.23900        11.58700        32.02200
C           5.09800        10.16100        32.52900
O           4.51500         9.22400        31.61200
H           5.06100         9.26900        30.77500
C           4.54000        10.06400        33.94000
O           5.02900         8.80700        34.42900
H           4.65600         8.07200        33.86200
C           6.04500        13.96400        32.73900
O           5.00400        14.95100        32.71100
H           5.12400        15.50800        31.88900
C           5.74700        12.52000        33.10900
O           5.00300        12.40800        34.33000
C           5.15000        11.09100        34.88000
O           4.47800        11.12300        36.14800
C           5.17700        11.32200        37.38400
C           5.29700        12.78600        37.77500
O           5.58200        13.65700        36.67000
H           5.37800        13.20300        35.80300
C           5.94900        13.01500        39.12900
O           5.55600        14.31200        39.60200
H           5.98600        15.01500        39.03600
C           4.37200         8.99700        38.05800
O           5.56300         8.34700        37.58900
H           5.41800         8.26100        36.60300
C           4.52100        10.45800        38.44900
O           5.19600        10.71700        39.68900
C           5.34500        12.06700        40.15200
O           6.11500        11.96400        41.35800
C          10.49700        24.13800         2.75700
C          10.14000        25.54800         3.19900
O          10.27700        26.50700         2.14000
H          10.26000        26.02400         1.26400
C          10.67100        25.85600         4.58900
O          10.78200        27.18900         5.10800
H          10.95000        27.08100         6.08800
C          10.23900        21.67200         3.51300
O          10.05900        21.02900         2.24300
H          10.03400        20.04700         2.43000
C           9.94900        23.14300         3.76700
O          10.47900        23.51000         5.04800
C          10.19200        24.81100         5.58400
O          11.10100        24.84700         6.69400
C          10.64200        24.60000         8.03000
C          10.83300        23.18400         8.54700
O          10.35200        22.20700         7.61200
H          10.34800        22.58100         6.68500
C          10.47500        22.86700         9.99000
O          11.42600        21.86000        10.36500
H          11.36900        21.50500        11.29800
C          11.04600        26.92000         8.78500
O          11.60200        27.58600         7.64200
H          11.23900        28.51300         7.74200
C          11.29400        25.45500         9.10500
O          10.57900        25.37900        10.34700
C          10.75500        24.06200        10.88800
O          10.11000        24.03200        12.16900
C          10.98300        24.20900        13.29400
C          10.39800        25.52000        13.79400
O          10.76300        26.54700        12.86100
H          10.68000        26.11000        11.96600
C          10.77100        25.88500        15.22100
O          10.11100        27.05200        15.73400
H          10.52900        27.21200        16.62800
C          11.11700        21.87700        14.02000
O          10.73900        20.94600        12.99500
H          10.30400        20.16300        13.43900
C          10.53900        23.23700        14.37500
O          11.13200        23.57900        15.63600
C          10.52200        24.74900        16.20000
O          11.39500        24.78000        17.33800
C          10.79600        24.53900        18.62000
C          11.23500        23.14400        19.03500
O          10.86800        22.18500        18.03200
H          11.12100        22.59300        17.15500
C          10.61400        22.78900        20.37600
O          11.26700        21.57900        20.78800
H          10.94600        21.36800        21.71100
C          10.58700        26.87600        19.16900
O          11.34500        27.49300        18.11900
H          11.75900        28.32900        18.47900
C          11.06600        25.54600        19.72600
O          10.41600        25.20300        20.95800
C          10.84500        23.90200        21.38500
O          10.14100        23.62700        22.60600
C          10.75800        24.06300        23.82600
C          10.26400        25.40400        24.34400
O          10.41600        26.43600        23.35800
H          10.40500        26.00500        22.45500
C          10.88800        25.79100        25.67500
O          10.36100        27.01500        26.20600
H          10.94300        27.31300        26.96300
C          11.20500        21.73600        24.61200
O          10.67700        20.95300        23.53100
H          10.69700        20.01400        23.87300
C          10.46100        23.03000        24.90100
O          11.08400        23.42000        26.13400
C          10.58500        24.66300        26.64800
O          11.42200        24.63600        27.81400
C          10.75500        24.44300        29.07000
C          11.11700        23.06500        29.59900
O          10.81700        22.01200        28.67200
H          11.21600        22.29000        27.79900
C          10.66400        22.68500        31.00000
O          11.33900        21.55400        31.57200
H          10.80500        21.26000        32.36400
C          10.69000        26.94000        29.73700
O          11.21700        27.58400        28.56800
H          11.03200        28.56600        28.59100
C          11.09900        25.51900        30.08700
O          10.37600        25.08800        31.25000
C          10.88000        23.90200        31.88300
O          10.10600        23.83500        33.09000
C          10.84400        24.05400        34.30100
C          10.51500        25.42300        34.87500
O          10.77300        26.45000        33.90600
H          10.50200        26.10600        33.00700
C          11.16800        25.73700        36.21100
O          10.51200        26.89000        36.75700
H          10.93800        27.12100        37.63200
C          10.74600        21.57100        35.07100
O          10.36500        20.91400        33.85300
H          10.39400        19.95700        34.13900
C          10.55300        23.04300        35.39800
O          11.18400        23.37800        36.64200
C          10.90900        24.65200        37.24300
O          11.74500        24.50300        38.40000
C          10.98400        24.33900        39.60500
C          11.54300        23.03800        40.16000
O          11.23100        22.02700        39.19100
H          11.53800        22.50000        38.36600
C          10.86200        22.67100        -0.51200
O          11.41200        21.42500        -0.05800
H          10.96500        21.20000         0.80800
C          10.90600        26.87700        40.22100
O          11.42700        27.58600        39.08700
H          11.08700        28.51600        39.22800
C          11.36200        25.46600        -1.43100
O          10.69400        25.21000        -0.18700
C          11.04700        23.92000         0.33400
O          10.12700        23.75700         1.42300
C           6.26600        19.74300         0.58900
C           6.22400        18.33300         1.15400
O           5.48400        17.38000         0.37600
H           5.63200        17.48700        -0.60700
C           5.65500        18.28800         2.56300
O           5.72400        16.97600         3.14100
H           5.12000        16.38700         2.60400
C           6.93900        22.16400         1.02600
O           5.76900        22.97500         1.20500
H           5.77500        23.81800         0.66700
C           6.97200        20.72400         1.51200
O           6.37000        20.64900         2.81200
C           6.11600        19.40600         3.48300
O           5.25200        19.47500         4.62600
C           5.97200        19.58500         5.86200