# freq=raman b3lyp/6-31+g(d,p) geom=connectivity

300 6000.com

0 1
 O                  7.66700000    7.63500000   22.55100000
 C                  8.18300000    7.84700000   23.87300000
 C                  7.84600000    9.26400000   24.30600000
 O                  8.35700000   10.22100000   23.36700000
 H                  8.27000000    9.80900000   22.46000000
 C                  8.20400000    9.59300000   25.74600000
 O                  7.47500000   10.74800000   26.18600000
 H                  7.73100000   11.20500000   27.03800000
 C                  7.79900000    5.39800000   24.78900000
 O                  7.66700000    4.82000000   23.48300000
 H                  7.88900000    3.84800000   23.55700000
 C                  7.52800000    6.89200000   24.85800000
 O                  7.73900000    7.12000000   26.25900000
 C                  7.76000000    8.48800000   26.69100000
 O                  8.60000000    8.58400000   27.85000000
 C                  8.06900000    8.30500000   29.15300000
 C                  8.38100000    6.89300000   29.62300000
 O                  7.84200000    5.90700000   28.73100000
 H                  7.86900000    6.35700000   27.83800000
 C                  7.96200000    6.55200000   31.04400000
 O                  8.58000000    5.41500000   31.66200000
 H                  8.04300000    5.13000000   32.45600000
 C                  8.55500000   10.77000000   30.00300000
 O                  8.72000000   11.46200000   28.75600000
 H                  8.49000000   12.42800000   28.87600000
 C                  8.56300000    9.26600000   30.22200000
 O                  7.89100000    9.05200000   31.47100000
 C                  8.22100000    7.74200000   31.95400000
 O                  7.36700000    7.54600000   33.09000000
 H                  7.90378598    7.41067818   33.87431423
 H                  8.39647185    7.53618378   21.93479697
 H                  7.11719949    4.90143240   25.44738338
 H                  8.79516869    5.22015034   25.13673184
 H                  6.47611243    7.00448503   24.69743955
 H                  9.24368716    7.70622833   23.87810669
 H                  6.78019609    9.33946705   24.24884455
 H                  9.25665955    9.76072580   25.83914464
 H                  6.76455158    8.72832773   27.00120159
 H                  7.61470217   11.10517480   30.38822440
 H                  9.32570992   11.15093990   30.64001728
 H                  9.58728941    9.00464394   30.38760260
 H                  7.00487157    8.40127241   29.09588347
 H                  9.44546171    6.79042926   29.58693733
 H                  6.90656853    6.37641048   31.03247921
 H                  9.24257031    7.72881499   32.27199411

 1 2 1.0 31 1.0
 2 3 1.0 12 1.0 35 1.0
 3 4 1.0 6 1.0 36 1.0
 4 5 1.0
 5
 6 7 1.0 14 1.0 37 1.0
 7 8 1.0
 8
 9 10 1.0 12 1.0 32 1.0 33 1.0
 10 11 1.0
 11
 12 13 1.0 34 1.0
 13 14 1.0
 14 15 1.0 38 1.0
 15 16 1.0
 16 17 1.0 26 1.0 42 1.0
 17 18 1.0 20 1.0 43 1.0
 18 19 1.0
 19
 20 21 1.0 28 1.0 44 1.0
 21 22 1.0
 22
 23 24 1.0 26 1.0 39 1.0 40 1.0
 24 25 1.0
 25
 26 27 1.0 41 1.0
 27 28 1.0
 28 29 1.0 45 1.0
 29 30 1.0
 30
 31
 32
 33
 34
 35
 36
 37
 38
 39
 40
 41
 42
 43
 44
 45

