# freq=raman b3lyp/6-31+g(2d,p) geom=connectivity
320 7000.com
320 7000.com
C           7.95900         8.13100         3.07800
0 1
O           7.18800        10.41500         2.77900
H           7.34100         9.90700         1.93200
C           7.87600         9.79500         5.05600
O           7.09700        10.78200         5.74800
H           7.49200        11.02800         6.63300
C           8.21000         5.66000         3.76100
O           7.50200         4.91100         2.76200
H           7.64300         3.94500         2.97900
C           7.73300         7.05500         4.12800
O           8.42200         7.41600         5.33400
C           7.83800         8.57000         5.95600
O           8.66800         8.74900         7.11200
C           8.21100         8.44400         8.43800
C           8.68100         7.07100         8.89200
O           8.30900         6.05300         7.95200
H           8.62000         6.43100         7.08000
C           8.14600         6.74800        10.27700
O           8.51000         5.47700        10.83500
H           8.35900         5.40200        11.82100
C           8.02000        10.81200         9.25100
O           8.53800        11.46700         8.08400
H           8.15600        12.38900         8.02000
C           8.61100         9.43700         9.51600
O           8.08100         9.01500        10.78100
C           8.62200         7.78400        11.28300
O           7.71000         7.63100        12.38000
C           8.24000         7.96400        13.67200
C           7.82900         9.36000        14.11000
O           8.34800        10.33200        13.19100
H           8.01600        10.06000        12.28800
C           8.34400         9.74500        15.48700
O           7.90000        11.04800        15.89200
H           8.20100        11.25400        16.82400
C           8.13500         5.54400        14.59000
O           7.58700         4.93500        13.41200
H           7.86700         3.97700        13.35400
C           7.86400         7.02400        14.80500
O           8.48600         7.39200        16.04500
C           8.03600         8.67000        16.51700
O           8.77100         8.91600        17.72400
C           8.00400         8.56200        18.88400
C           8.42300         7.17800        19.35200
O           7.94800         6.21400        18.40100
H           8.36700         6.45300        17.52600
C           7.84200         6.88100        20.72500
O           8.49000         5.66200        21.11700
H           8.45900         5.44300        22.09200
C           7.88800        10.98300        19.49400
O           8.56800        11.62600        18.40600
H           8.46000        12.61900        18.37500
C           8.30500         9.59600        19.95600
O           7.61700         9.24900        21.16600
C           8.13000         8.01700        21.69300
O           7.36100         7.83100        22.89000
C           8.04000         8.02100        24.14000
C           7.63100         9.38400        24.67400
O           7.88200        10.32500        23.61900
H           7.34600         9.94400        22.86600
C           8.19500         9.62000        26.06500
O           7.55800        10.74000        26.69700
H           8.20600        11.21800        27.28900
C           8.21700         5.55500        24.78800
O           7.90700         4.92000        23.53900
H           8.19900         3.96600        23.47700
C           7.64000         6.92400        25.11300
O           8.21900         7.12300        26.41100
C           8.02700         8.42300        26.98600
O           8.97200         8.55400        28.05900
C           8.47500         8.30200        29.38100
C           8.91800         6.93100        29.86700
O           8.72600         5.95800        28.83000
H           8.73400         6.42200        27.94400
C           8.45700         6.49700        31.24900
O           9.21600         5.36400        31.69700
H           8.93200         4.98200        32.57700
C           8.51100        10.59500        30.24100
O           8.69100        11.51500        29.15500
H           8.45300        12.45200        29.41100
C           9.01300         9.18300        30.49700
O           8.43500         8.92600        31.78500
C           8.80600         7.61100        32.22200
O           7.99200         7.34000        33.37300
C           8.44200         7.77600        34.66300
C           7.94200         9.12500        35.15500
O           8.26000        10.11000        34.16100
H           8.30400         9.66200        33.26800
C           8.49700         9.54000        36.50700
O           8.09600        10.86800        36.87500
H           8.35400        10.95600        37.83800
C           8.72900         5.35900        35.32700
O           8.25500         4.47400        34.30200
H           8.51300         3.51800        34.44200
C           8.06200         6.68600        35.65100
O           8.42000         7.12700        36.96900
C           8.10900         8.43400        37.47500
O           8.87100         8.66700        38.66800
C           8.25500         8.44400        39.94500
C           8.60000         7.07000        40.49600
O           8.11300         6.04000        39.62300
H           8.08000         6.48200        38.72600
C           7.97800         6.73000        -0.21100
O           8.66300         5.62500         0.39600
H           8.31600         5.42500         1.31200
C           8.40400        10.93400        40.62500
O           8.73200        11.58200        39.38800
H           8.59600        12.56500        39.51500
C           8.68100         9.47600        -1.08500
O           8.02600         9.19900         0.16200
C           8.30500         7.90000         0.70300
O           7.37000         7.89400         1.79100
C           4.01800         4.22800         0.18300
C           4.56400         2.93100        42.80500
O           4.52200         1.90100        41.80700
H           4.76900         2.39700        40.97500
C           3.91100         2.57900         2.08200
O           4.49600         1.34400         2.52000
H           4.15800         1.11500         3.43300
C           3.75800         6.61600         1.00300
O           4.24400         7.26200        -0.18200
H           4.15500         8.23400         0.03500
C           4.30000         5.22600         1.29500
O           3.62900         4.91100         2.52300
C           4.19100         3.70600         3.06300
O           3.49300         3.60300         4.31200
C           4.18300         3.94400         5.52300
C           3.81800         5.32900         6.03300
O           4.10500         6.26300         4.98200
H           3.65500         5.97100         4.13800
C           4.50700         5.61700         7.35700
O           3.75900         6.69400         7.94100
H           4.01300         6.84800         8.89600
C           4.51400         1.53300         6.05500
O           3.98300         0.62200         5.08200
H           4.40500        -0.23900         5.36600
C           4.05000         2.87600         6.59600
O           4.78800         3.30300         7.75000
C           4.17800         4.47700         8.30600
O           4.73300         4.68200         9.61300
C           4.00900         4.40000        10.81900
C           4.31000         3.00200        11.33800
O           4.08400         2.07300        10.26800
H           4.55600         2.39800         9.44800
C           3.67000         2.59900        12.65600
O           4.30700         1.45000        13.23400
H           3.91000         1.37200        14.14900
C           3.43200         6.72300        11.58400
O           3.88600         7.44300        10.42900
H           3.70200         8.42300        10.49600
C           4.21200         5.45600        11.89400
O           3.58200         5.05500        13.11900
C           3.98000         3.75900        13.58900
O           3.33800         3.72600        14.87200
C           4.05400         4.05900        16.07000
C           3.67400         5.43800        16.58300
O           3.95700         6.49200        15.65100
H           3.46300         6.30100        14.80300
C           4.12900         5.61300        18.02300
O           3.88400         6.94100        18.50800
H           3.95600         7.01100        19.50300
C           4.21000         1.58800        16.87700
O           3.82400         0.68800        15.82800
H           4.00000        -0.23300        16.17500
C           3.63600         2.98300        17.05800
O           4.04400         3.26900        18.40400
C           3.54800         4.51900        18.90400
O           4.37200         4.61400        20.07500
C           3.65500         4.39600        21.29800
C           4.02500         2.97200        21.67800
O           3.46700         2.08500        20.69700
H           3.70000         2.47100        19.80400
C           3.35300         2.66400        23.00600
O           3.76800         1.41100        23.57000
H           3.60400         1.31800        24.55200
C           3.80400         6.83500        22.09300
O           4.58800         7.41600        21.04100
H           4.50200         8.41200        21.03800
C           4.05800         5.36700        22.39600
O           3.43100         5.03000        23.64100
C           3.78700         3.69600        24.03400
O           3.22600         3.54500        25.34600
C           4.15200         3.82600        26.40500
C           3.90600         5.19800        27.01200
O           4.48100         6.06800        26.02700
H           4.09300         5.93400        25.11500
C           4.55400         5.53000        28.34600
O           4.06500         6.79000        28.82900
H           4.37200         6.87800        29.77700
C           4.08100         1.36100        27.09200
O           3.45400         0.60300        26.04700
H           3.54500        -0.36600        26.27500
C           3.82500         2.80700        27.48500
O           4.48800         3.12700        28.71600
C           4.10000         4.39900        29.25500
O           4.90000         4.39400        30.44600
C           4.16800         4.28400        31.67500
C           4.27700         2.89200        32.27500
O           3.74200         1.99600        31.29000
H           4.18300         2.23400        30.42500
C           3.72200         2.64300        33.66800
O           4.12000         1.33400        34.10100
H           3.97000         1.26600        35.08800
C           4.43200         6.69700        32.58500
O           4.47400         7.37300        31.32000
H           4.40000         8.36100        31.45800
C           4.64900         5.20600        32.78400
O           4.08100         5.01100        34.08700
C           4.32600         3.69000        34.59100
O           3.61300         3.55300        35.82800
C           4.30900         3.85300        37.04700
C           4.05700         5.26600        37.54800
O           4.16000         6.32100        36.58000
H           3.97100         5.98200        35.65800
C           4.76600         5.56500        38.85900
O           4.41700         6.86900        39.34800
H           4.57600         6.96300        40.33100
C           4.28200         1.46900        37.77300
O           3.72500         0.76600        36.65300
H           3.64300        -0.21800        36.80800
C           3.82500         2.87900        38.10900
O           4.53200         3.18700        39.31900
C           4.21900         4.50300        39.79800
O           4.81000         4.61800        41.10100
C           7.87900        15.99700         2.91500
C           7.38800        17.35700         3.38300
O           7.51100        18.44800         2.45900
H           7.48800        18.06500         1.53500
C           7.96500        17.68600         4.75000
O           7.42600        18.95300         5.15300
H           7.79800        19.17800         6.05400
C           8.20200        13.57400         3.56400
O           7.35400        12.95800         2.58400
H           7.14900        12.01400         2.84400
C           7.65000        14.93000         3.97200
O           8.31000        15.29700         5.19300
C           7.77700        16.52400         5.71200
O           8.47500        16.71400         6.95100
C           7.76500        16.39000         8.15500
C           8.30700        15.04300         8.60300
O           7.84100        13.91500         7.84900
H           7.85000        14.13200         6.87300
C           8.03300        14.76600        10.07300
O           9.06900        13.91300        10.58200
H           8.79200        13.68100        11.51400
C           7.76100        18.97100         8.81100
O           8.35400        19.69600         7.72300
H           8.26200        20.68800         7.80300
C           8.10500        17.52200         9.11200
O           7.52800        17.12900        10.36600
C           8.17100        15.99200        10.96100
O           7.35600        15.77600        12.12300
C           7.87300        16.06200        13.43100
C           7.45500        17.42700        13.95100
O           7.36600        18.51700        13.02100
H           7.03500        17.99000        12.23800
C           8.09000        17.72200        15.30000
O           7.45600        18.91800        15.77600
H           7.71400        19.01100        16.73700
C           8.30200        13.74800        14.30900
O           7.94200        12.98100        13.15100
H           8.24400        12.05100        13.36100
C           7.50100        15.02800        14.48200
O           8.05400        15.36900        15.76100
C           7.63500        16.64400        16.27000
O           8.39100        16.81500        17.47800
C           7.79600        16.57700        18.76200
C           8.28600        15.21100        19.21700
O           8.12700        14.16100        18.25200
H           8.30300        14.56000        17.35200
C           7.89300        14.86800        20.64400
O           8.48300        13.63900        21.09100
H           8.27900        13.38000        22.03500
C           7.50500        18.83800        19.71600
O           7.64200        19.48800        18.44400
H           7.47000        20.44300        18.68900
C           8.23500        17.51400        19.87500
O           7.79500        17.18300        21.20100
C           8.33300        15.92800        21.64100
O           7.50100        15.73800        22.79400
C           8.09400        16.06900        24.05900
C           7.31000        17.28600        24.52300
O           7.36100        18.39500        23.61400
H           6.99100        18.07100        22.74400
C           7.82300        17.66800        25.90200
O           7.36200        18.92400        26.41900
H           7.88400        19.13800        27.24500
C           8.39000        13.61100        24.69500
O           7.87000        12.91900        23.55000
H           7.83000        11.94300        23.76500
C           7.74400        14.94700        25.02300
O           8.22900        15.29200        26.32900
C           7.68900        16.50600        26.87200
O           8.66400        16.81300        27.87900
C           8.09200        16.54300        29.16700
C           8.61200        15.22000        29.70500
O           8.52600        14.21000        28.68900
H           8.47400        14.55600        27.75300
C           8.17400        14.80300        31.10000
O           8.65800        13.54800        31.60000
H           8.08300        13.34400        32.39200
C           8.03200        18.97000        29.97600
O           8.39300        19.60800        28.74300
H           8.35500        20.60400        28.82300
C           8.40000        17.52800        30.28300
O           7.82700        17.17700        31.55200
C           8.33300        15.94700        32.08900
O           7.57000        15.70800        33.28000
C           8.15100        16.19200        34.50000
C           7.54300        17.46200        35.07300
O           7.73400        18.45900        34.06000
H           7.51300        18.10400        33.15200
C           8.16900        17.85100        36.40300
O           7.32800        18.87900        36.94600
H           7.66900        19.16200        37.84300
C           8.51900        13.69300        35.09100
O           7.78300        12.78500        34.25800
H           8.14500        11.88500        34.50300
C           8.08400        15.08100        35.53500
O           8.68500        15.46300        36.78100
C           8.10800        16.65300        37.33600
O           8.81000        16.97000        38.54700
C           8.23400        16.46500        39.76100
C           8.84200        15.17300        40.28100
O           8.70300        14.23300        39.20600
H           8.97600        14.68800        38.35800
C           8.11600        14.78100        -0.49300
O           8.52600        13.55500         0.13100
H           8.03900        13.38600         0.98800
C           7.76400        18.94200        40.51000
O           7.97300        19.67600        39.29500
H           8.38400        20.58200        39.39000
C           8.25200        17.53700        -1.22000
O           7.59800        17.03400        -0.04600
C           8.24700        15.89300         0.53500
O           7.31600        15.75100         1.61800
C           3.73300        12.44500         0.51700
C           3.98800        11.03700         1.03000
O           3.65600        10.03400         0.05900
H           3.94300        10.28900        -0.86500
C           3.31100        10.79800         2.37000
O           3.51700         9.47400         2.88400
H           3.17400         9.35100         3.81500
C           3.67400        14.84000         1.37200
O           4.24600        15.42400         0.19300
H           3.99900        16.39100         0.25300
C           4.07400        13.40000         1.64900
O           3.40000        13.16900         2.89500
C           3.74100        11.85900         3.37000
O           2.97500        11.67600         4.57000
C           3.69900        12.05400         5.75000
C           3.46700        13.47500         6.23600
O           3.92800        14.33400         5.18300
H           3.66900        13.86900         4.33600
C           4.05100        13.70100         7.62100
O           3.84800        15.01800         8.15300
H           4.33900        15.07600         9.02300
C           3.74100         9.61200         6.55900
O           3.32300         8.89500         5.38900
H           3.64300         7.95300         5.49500
C           3.25600        11.03500         6.78700
O           3.98000        11.29700         7.99800
C           3.68000        12.57600         8.57400
O           4.45000        12.71600         9.77600
C           3.75300        12.38700        10.98600
C           3.97700        10.96100        11.46200
O           3.54100        10.01300        10.47700
H           3.89700        10.53500         9.70200
C           3.41000        10.69600        12.84700
O           3.26100         9.36300        13.35800
H           3.34500         9.42700        14.35200
C           3.82900        14.70800        11.86200
O           4.33100        15.42700        10.72600
H           4.19300        16.41700        10.73500
C           4.30100        13.28000        12.08700
O           3.70800        12.96400        13.35500
C           4.05600        11.65600        13.83200
O           3.30000        11.82100        15.04000
C           4.05000        12.12900        16.22400
C           3.63500        13.49300        16.75400
O           3.90500        14.45600        15.72500
H           3.55000        14.04500        14.88500
C           4.23700        13.81800        18.11100
O           3.84800        15.10200        18.61900
H           4.13200        15.31800        19.55300
C           4.11100         9.65100        16.89600
O           3.38900         8.99300        15.84600
H           3.36800         8.01400        16.05000
C           3.75800        11.07800        17.28300
O           4.47000        11.42700        18.47900
C           3.89800        12.63500        19.00300
O           4.40300        12.99500        20.29700
C           4.05200        12.52200        21.60500
C           4.40700        11.09200        21.97800
O           4.13700        10.09400        20.98300
H           4.50000        10.32200        20.07900
C           3.60800        10.88100        23.25400
O           3.84100         9.54000        23.70700
H           3.59600         9.53500        24.67700
C           3.88500        14.96200        22.22700
O           4.41200        15.64000        21.07800
H           4.21400        16.61000        21.22000
C           4.38700        13.58700        22.63600
O           3.68400        13.24500        23.83900
C           3.99100        11.92000        24.29500
O           3.27400        11.74100        25.52600
C           4.01600        12.01900        26.72200
C           3.74800        13.40000        27.30000
O           4.16400        14.39600        26.35400
H           3.84000        14.10900        25.45200
C           4.45800        13.64600        28.62100
O           4.02900        14.95000        29.03800
H           4.46400        15.31100        29.86300
C           4.25800         9.57400        27.41700
O           3.49800         8.95100        26.37200
H           3.74300         7.99900        26.55800
C           3.76100        10.96300        27.78500
O           4.37800        11.20600        29.05700
C           4.08100        12.51600        29.56400
O           4.88700        12.48000        30.75100
C           4.34900        12.22800        32.05800
C           4.58900        10.80400        32.53200
O           4.25400         9.88300        31.48400
H           4.45100        10.25600        30.57800
C           3.74900        10.68900        33.79400
O           3.76300         9.35100        34.31200
H           3.29200         9.44700        35.18800
C           4.34500        14.66200        32.79500
O           4.62000        15.46100        31.63400
H           4.68400        16.42000        31.91100
C           4.81400        13.24600        33.08700
O           4.16700        13.07700        34.35600
C           4.31200        11.71000        34.76900
O           3.62800        11.73400        36.03000
C           4.22900        12.06900        37.28900
C           3.88100        13.45000        37.82000
O           3.99700        14.40000        36.75000
H           3.67700        13.89500        35.94800
C           4.27000        13.73600        39.26100
O           3.68500        14.94500        39.76700
H           4.05700        15.05500        40.68800
C           3.95000         9.55000        38.13800
O           3.45300         9.09500        36.87000
H           3.67100         8.12700        36.75100
C           3.75800        11.04800        38.31200
O           4.44600        11.35900        39.53200
C           3.98200        12.55500        40.17400
O           4.61400        12.67200        41.45700
C           7.88600        24.34200         3.23000
C           7.29600        25.63900         3.75900
O           7.43100        26.73100         2.83800
H           7.36900        26.33600         1.92100
C           7.86300        26.02600         5.11600
O           7.20400        27.13700         5.73900
H           7.59100        27.38600         6.62700
C           8.19900        21.84100         3.93400
O           7.67800        21.16800         2.77800
H           7.73300        20.18000         2.91900
C           7.61000        23.21400         4.21100
O           8.00400        23.61800         5.53100
C           7.65400        24.88700         6.10100
O           8.61300        24.94100         7.16700
C           8.05100        24.65000         8.45500
C           8.79000        23.42000         8.95700
O           8.49500        22.39000         8.00300
H           8.18600        22.93300         7.22200
C           8.25300        23.02500        10.32300
O           8.89900        21.88300        10.90500
H           8.40900        21.54600        11.70900
C           7.49500        27.09900         9.18200
O           8.19500        27.74300         8.10700
H           8.22500        28.73700         8.21100
C           8.15600        25.76400         9.48300
O           7.46600        25.33900        10.66700
C           8.14800        24.22200        11.25400
O           7.51000        23.79700        12.46800
C           8.00700        24.33100        13.70400
C           7.37300        25.65700        14.09100
O           7.57800        26.65000        13.07600
H           7.16400        26.38400        12.20600
C           7.88800        26.09700        15.45200
O           7.18100        27.24400        15.94600
H           7.55100        27.42700        16.85800
C           8.44500        21.95100        14.44200
O           8.13600        21.14000        13.29900
H           8.15600        20.14900        13.43800
C           7.68600        23.24000        14.71300
O           8.27600        23.66900        15.94900
C           7.77300        24.92900        16.41700
O           8.52600        25.12200        17.62400
C           7.91300        24.63100        18.82400
C           8.43800        23.30100        19.34000
O           8.08000        22.34100        18.33400
H           8.38000        22.76400        17.47900
C           8.00100        22.95900        20.75500
O           8.53200        21.89700        21.56100
H           7.98000        21.83400        22.39300
C           7.46300        27.04600        19.62400
O           7.92100        27.74000        18.45400
H           7.84200        28.73500        18.50800
C           8.11700        25.69900        19.88600
O           7.57500        25.38900        21.17800
C           8.12900        24.16200        21.67600
O           7.34100        23.82600        22.82700
C           7.84100        24.20800        24.11700
C           7.32100        25.54300        24.62500
O           7.59500        26.55800        23.64900
H           7.71600        26.20800        22.72000
C           7.87100        25.94800        25.98400
O           7.38000        27.19600        26.49300
H           7.63700        27.36000        27.44500
C           8.07600        21.80100        24.88000
O           7.40800        21.09100        23.82700
H           7.51000        20.10800        23.98200
C           7.50600        23.17700        25.18200
O           8.10000        23.59600        26.41900
C           7.50600        24.80400        26.91600
O           8.14200        25.11400        28.16500
C           7.53900        24.73100        29.40900
C           8.14300        23.40300        29.83800
O           7.98100        22.33000        28.89900
H           8.33000        22.74500        28.05800
C           7.78700        23.05400        31.27400
O           8.40900        21.87400        31.80500
H           8.00200        21.58800        32.67200
C           7.14000        27.12300        30.24400
O           7.59900        27.81800        29.07600
H           7.61000        28.81200        29.17700
C           7.71600        25.74500        30.52700
O           7.16200        25.38500        31.80100
C           7.87100        24.21900        32.24600
O           7.25800        23.86500        33.49400
C           7.88200        24.23300        34.73300
C           7.35600        25.56300        35.25000
O           7.52900        26.65600        34.33800
H           7.53000        26.28100        33.41100
C           7.98300        25.94100        36.58200
O           7.31600        27.05100        37.20100
H           7.84800        27.36300        37.98800
C           8.12800        21.83200        35.43300
O           7.61600        21.18200        34.26000
H           7.95400        20.24800        34.36800
C           7.62600        23.21100        35.82900
O           8.35400        23.52700        37.02400
C           7.82300        24.76100        37.52800
O           8.66000        24.95600        38.67700
C           8.15400        24.68000        39.99000
C           8.61100        23.33900        40.54100
O           8.42800        22.32500        39.54200
H           8.69800        22.76300        38.68500
C           7.97600        22.99900        -0.17100
O           8.32600        21.70100         0.33200
H           8.04600        21.59200         1.28600
C           7.83800        27.14100        40.67600
O           8.39600        27.91900        39.60800
H           8.15000        28.88500        39.68500
C           8.38800        25.76500        -1.03100
O           7.69600        25.46600         0.19000
C           8.13900        24.21200         0.73100
O           7.37500        24.01700         1.93000
C           3.52500        20.63700         0.47900
C           4.00000        19.25500        42.94400
O           3.79200        18.22400        41.96800
H           4.17400        18.53100        41.09600
C           3.47600        18.90600         2.27600
O           3.77700        17.60100         2.79000
H           3.53300        17.53900         3.75700
C           3.71300        23.04300         1.22900
O           4.18400        23.64500         0.01400
H           4.01900        24.63000         0.06200
C           4.10700        21.60000         1.50000
O           3.67700        21.31900         2.83900
C           3.89300        19.97000         3.27900
O           3.08300        19.88300         4.46000
C           3.83900        20.03900         5.67000
C           3.60400        21.46100         6.15400