# freq=raman b3lyp/6-31+g(2d,p) geom=connectivity

473 6737/6737.com

0 1
C           8.20100         7.97000         3.14300
C           7.52700         9.24400         3.62400
O           7.41200        10.20600         2.56600
H           7.21900         9.68400         1.73500
C           8.13600         9.72800         4.93000
O           7.53200        10.92100         5.45100
H           8.01100        11.10500         6.30900
C           8.66400         5.55200         3.87500
O           8.27200         4.79800         2.71900
H           8.21500         3.83000         2.96500
C           7.98900         6.87900         4.18000
O           8.46300         7.36300         5.44500
C           7.96700         8.61200         5.94800
O           8.79500         8.83800         7.09700
C           8.16400         8.48200         8.33600
C           8.73200         7.12400         8.71700
O           8.37000         6.03600         7.85500
H           8.65000         6.33700         6.94300
C           8.34600         6.78900        10.14900
O           9.05300         5.65600        10.67500
H           8.61200         5.27400        11.48700
C           7.84800        10.91100         9.01500
O           8.56900        11.54300         7.94800
H           8.36400        12.52000         7.89200
C           8.42500         9.55300         9.38200
O           7.87000         9.09100        10.62200
C           8.46500         7.90700        11.17200
O           7.64700         7.53000        12.28900
C           8.15100         7.94100        13.56800
C           7.54800         9.28000        13.96000
O           8.15700        10.31000        13.16600
H           7.96500        10.04500        12.22100
C           8.04700         9.62700        15.35300
O           7.45600        10.77600        15.97600
H           7.87900        10.90900        16.87200
C           8.21800         5.55200        14.25300
O           7.97300         4.84400        13.02900
H           7.94500         3.85200        13.15500
C           7.73300         6.94100        14.63400
O           8.18800         7.27400        15.95400
C           7.72100         8.56000        16.38600
O           8.68800         8.68500        17.43800
C           8.09600         8.38400        18.71000
C           8.78100         7.10500        19.16400
O           8.46500         6.06200        18.23000
H           8.53500         6.50100        17.33400
C           8.46000         6.59400        20.55900
O           9.30500         5.54200        21.04900
H           8.98800         5.14000        21.90800
C           7.81100        10.76900        19.60700
O           8.23900        11.59700        18.51600
H           7.97500        12.55000        18.66800
C           8.36100         9.37100        19.83600
O           7.89600         8.87200        21.09800
C           8.61800         7.72300        21.56400
O           7.90000         7.42000        22.77000
C           8.34300         7.92700        24.03700
C           7.69200         9.24700        24.41900
O           7.96500        10.33000        23.51800
H           7.76700         9.99100        22.59800
C           8.15400         9.53300        25.83800
O           7.45300        10.65300        26.39700
H           7.85800        10.88900        27.28000
C           9.00100         5.59000        24.75600
O           8.77000         4.72100        23.63800
H           8.87900         3.77800        23.95200
C           8.11500         6.79500        25.02500
O           8.63300         7.26500        26.27800
C           8.01400         8.42000        26.86400
O           8.78700         8.66100        28.04900
C           8.21900         8.39000        29.33800
C           8.70300         7.03700        29.83400
O           8.33600         5.93300        28.99300
H           8.42900         6.30400        28.06900
C           8.19000         6.64900        31.21200
O           8.76500         5.45700        31.76600
H           8.47800         5.28300        32.70800
C           7.93200        10.82100        30.15000
O           8.32100        11.43200        28.91200
H           8.30900        12.42800        29.00700
C           8.54400         9.44900        30.37900
O           8.01800         9.02900        31.64600
C           8.48300         7.78200        32.18300
O           7.65100         7.60800        33.33900
C           8.17200         7.91400        34.64100
C           7.51300         9.19800        35.11700
O           7.80800        10.21800        34.15100
H           7.69500         9.70500        33.30000
C           7.90200         9.56600        36.53900
O           7.30100        10.77500        37.02800
H           7.76700        10.97900        37.88900
C           8.19500         5.43800        35.49700
O           7.82000         4.92100        34.21200
H           7.94700         3.92900        34.21000
C           7.72800         6.87500        35.65800
O           8.12800         7.19000        37.00000
C           7.64000         8.43500        37.52000
O           8.54100         8.67600        38.61000
C           8.08100         8.36100        39.93200
C           8.64600         7.03200        40.41000
O           8.20800         5.97800        39.54100
H           8.49500         6.20000        38.60900
C           8.29300         6.61300        -0.24600
O           9.17800         5.54700         0.12700
H           8.83100         5.16500         0.98400
C           7.94200        10.73800        40.66100
O           8.56500        11.42200        39.56400
H           8.43900        12.41200        39.62300
C           8.48400         9.36100        -1.06900
O           7.81000         8.94700         0.12800
C           8.39800         7.78000         0.72200
O           7.69900         7.41100         1.92000
C           3.98700         4.16600         0.02700
C           4.38700         2.78800        42.60500
O           4.04400         1.72800        41.70000
H           4.24500         1.97400        40.75100
C           3.80800         2.52300         1.91200
O           4.18600         1.21200         2.35700
H           3.88500         1.13700         3.30800
C           4.20500         6.60700        42.81400
O           4.53500         7.26200        41.58000
H           4.24500         8.21200        41.69700
C           4.46600         5.15000         1.08200
O           4.00200         4.90300         2.41700
C           4.38100         3.58400         2.83800
O           3.80500         3.51100         4.15000
C           4.39600         3.84000         5.41600
C           4.09000         5.26100         5.86100
O           4.63200         6.16100         4.88400
H           4.37400         5.79600         3.99000
C           4.61000         5.53600         7.26300
O           4.46900         6.90000         7.68500
H           4.52500         6.96200         8.68200
C           4.38300         1.47800         6.28100
O           3.92700         0.82900         5.08500
H           4.40000        -0.05100         5.03700
C           3.84500         2.88700         6.46500
O           4.13700         3.23600         7.82600
C           3.87700         4.59500         8.20500
O           4.68700         4.56200         9.39000
C           3.95300         4.21100        10.57100
C           4.35000         2.82800        11.06200
O           4.04400         1.75500        10.15800
H           3.99500         2.18900         9.25900
C           3.72800         2.55000        12.42000
O           4.18200         1.31300        12.98900
H           3.62400         1.28600        13.81800
C           4.20500         6.65900        11.40700
O           4.55800         7.43200        10.25000
H           4.42700         8.38600        10.51800
C           4.40500         5.17300        11.65700
O           3.90700         4.98400        12.99000
C           4.16500         3.63200        13.39400
O           3.38900         3.26600        14.54400
C           3.94100         3.66000        15.80900
C           3.61700         5.07500        16.25800
O           3.93600         6.10800        15.31500
H           3.82000         5.78400        14.37600
C           4.38100         5.35700        17.54100
O           3.65700         6.47400        18.07700
H           4.10400         6.78600        18.91500
C           4.06300         1.26600        16.61700
O           3.41300         0.55300        15.55500
H           3.57200        -0.42300        15.70100
C           3.68400         2.69800        16.95800
O           4.45600         3.15100        18.08000
C           4.03200         4.39200        18.66200
O           4.83900         4.45200        19.84700
C           4.08400         4.26400        21.05300
C           4.60300         3.00200        21.72300
O           4.40700         1.92100        20.80100
H           4.49100         2.31400        19.88600
C           4.03700         2.65800        23.09100
O           4.76200         1.53000        23.60200
H           4.52900         1.45600        24.57100
C           3.99200         6.73400        21.71900
O           4.73000         7.40400        20.68600
H           4.45200         8.36500        20.69100
C           4.38300         5.31800        22.10700
O           3.66200         5.02900        23.31300
C           4.19400         3.87800        23.98400
O           3.38000         3.81900        25.16400
C           4.11800         3.88500        26.39300
C           3.86700         5.26600        26.97800
O           4.01100         6.30400        25.99800
H           3.82400         5.82800        25.13800
C           4.57600         5.50100        28.30200
O           4.34100         6.83900        28.76700
H           4.55600         6.97100        29.73400
C           4.07000         1.39500        27.21000
O           4.01600         0.77200        25.91900
H           3.94700        -0.19500        26.16400
C           3.70900         2.85400        27.43300
O           4.36700         3.16400        28.67000
C           4.01600         4.43700        29.23100
O           4.60500         4.52900        30.53600
C           3.89400         4.08100        31.70000
C           4.21100         2.67200        32.17300
O           4.07800         1.64600        31.17900
H           4.35900         2.08400        30.32500
C           3.38800         2.45600        33.43200
O           3.58800         1.13900        33.96500
H           3.05500         1.09300        34.81000
C           3.84200         6.56600        32.53100
O           4.29000         7.36800        31.42800
H           3.99500         8.32200        31.49400
C           4.20300         5.11000        32.77500
O           3.54400         4.68200        33.97700
C           3.97200         3.40300        34.46800
O           3.23200         3.32800        35.69400
C           3.91700         3.63400        36.91700
C           3.47100         5.01000        37.38600
O           3.66200         5.94000        36.30900
H           3.53800         5.39100        35.48200
C           4.15600         5.39500        38.68700
O           3.61200         6.61200        39.21700
H           3.96500         6.60100        40.15300
C           3.85500         1.19300        37.72400
O           3.20000         0.55400        36.61900
H           3.46300        -0.40900        36.68300
C           3.60000         2.65800        38.03800
O           4.35400         3.01500        39.20600
C           3.90700         4.28600        39.69700
O           4.70900         4.39800        40.88100
C           7.84700        16.02500         2.95000
C           7.53800        17.41900         3.47200
O           8.14800        18.32100         2.53800
H           7.80500        18.12300         1.62000
C           7.96900        17.78900         4.88200
O           7.63100        19.04600         5.48600
H           8.22100        19.20300         6.27800
C           7.90900        13.62000         3.77600
O           7.24900        12.84900         2.76100
H           7.51100        11.88500         2.79600
C           7.48000        15.05100         4.05800
O           8.15200        15.35600         5.28900
C           7.71100        16.61600         5.81400
O           8.55700        16.72100         6.96800
C           8.03500        16.52300         8.29000
C           8.51100        15.18800         8.83800
O           8.05200        14.19100         7.91400
H           8.29200        14.60000         7.03300
C           8.01600        14.89900        10.24500
O           8.54400        13.69100        10.81200
H           8.28900        13.54900        11.76800
C           8.02600        19.00800         9.00000
O           8.57900        19.64900         7.84000
H           8.25500        20.59300         7.89000
C           8.50000        17.58900         9.26900
O           8.02600        17.32700        10.59800
C           8.41400        16.05800        11.14500
O           7.60000        15.98700        12.32500
C           8.26600        16.25400        13.56800
C           7.80500        17.62900        14.02400
O           8.06500        18.66600        13.06600
H           8.15900        18.32900        12.12900
C           8.30900        18.01100        15.40600
O           7.82400        19.25600        15.93000
H           7.99900        19.31500        16.91300
C           8.39200        13.72500        14.54500
O           7.97100        12.93400        13.42500
H           8.12600        11.97800        13.67500
C           8.01800        15.19600        14.63000
O           8.55800        15.66100        15.87500
C           7.94200        16.87000        16.34200
O           8.63900        17.10700        17.57400
C           8.01800        16.70000        18.80200
C           8.39300        15.29300        19.23900
O           8.01000        14.28900        18.28800
H           8.35500        14.52000        17.37800
C           7.83800        14.91500        20.60300
O           8.27800        13.61700        21.02800
H           7.95100        13.35800        21.93700
C           7.92700        19.14500        19.69100
O           8.37900        19.68300        18.43900
H           8.27400        20.67800        18.46500
C           8.35800        17.70200        19.89300
O           7.67200        17.27000        21.07700
C           8.07100        16.00900        21.63300
O           7.19000        15.77600        22.74100
C           7.86900        16.08700        23.96700
C           7.49300        17.46300        24.49200
O           7.89200        18.49400        23.57800
H           7.85200        18.08600        22.66600
C           7.86900        17.78800        25.92900
O           7.19700        18.87800        26.57700
H           7.68600        19.10000        27.42100
C           8.13700        13.57700        24.66800
O           7.44900        12.92500        23.59000
H           7.56600        11.95900        23.81900
C           7.57200        14.96100        24.94300
O           8.09800        15.36100        26.21700
C           7.64600        16.58000        26.82400
O           8.44600        16.56400        28.01600
C           7.75600        16.31300        29.24900
C           8.44000        15.07500        29.80600
O           8.23900        14.05400        28.81700
H           8.31300        14.50800        27.92800
C           8.04400        14.62700        31.20300
O           8.67200        13.53500        31.89200
H           8.30200        13.42400        32.81400
C           7.54200        18.79500        30.14800
O           7.95200        19.44700        28.93700
H           7.73200        20.41400        29.06800
C           8.08900        17.38200        30.27700
O           7.66900        17.00600        31.59600
C           8.19000        15.79500        32.16400
O           7.47100        15.46000        33.36000
C           8.11400        15.83400        34.58700
C           7.63400        17.17500        35.11600
O           8.05200        18.14200        34.14200
H           7.64500        17.81800        33.28800
C           8.20000        17.62900        36.45200
O           7.62200        18.85600        36.92000
H           7.91500        19.09500        37.84600
C           8.12600        13.41900        35.42800
O           7.47400        12.77100        34.32600
H           7.79600        11.82600        34.37600
C           7.71800        14.86000        35.68500
O           8.31200        15.17400        36.95300
C           7.79600        16.45800        37.33300
O           8.46200        16.62200        38.59300
C           7.78700        16.39800        39.84000
C           8.36600        15.06700        40.29400
O           8.33900        14.03000        39.30300
H           8.41700        14.47900        38.41300
C           7.90900        14.66100        -0.38700
O           8.53900        13.48200         0.13600
H           8.05300        13.18100         0.95600
C           7.75400        18.84400        40.51300
O           8.22900        19.47500        39.31500
H           8.00100        20.41000        39.58800
C           8.26900        17.45000        -1.24800
O           7.79500        17.11600         0.06500
C           8.14200        15.81900         0.57000
O           7.26300        15.65400         1.69300
C           3.71800        12.38900         0.24200
C           4.07600        11.03800        42.91300
O           3.83700         9.98800        41.96500
H           4.03600        10.35700        41.05700
C           3.47800        10.65700         2.18500
O           3.97200         9.38900         2.64100
H           3.66100         9.24500         3.58100
C           3.75500        14.80200         1.07000
O           4.21800        15.51600        -0.08500
H           4.20100        16.51000         0.02500
C           4.19000        13.36500         1.30700
O           3.65000        13.10800         2.61200
C           3.91900        11.78600         3.10200
O           3.20600        11.66800         4.34200
C           3.96500        12.03900         5.50200
C           3.49600        13.39800         5.99700
O           3.73400        14.41400         5.01300
H           3.41100        14.14900         4.10500
C           4.26000        13.73100         7.26900
O           3.81800        14.97200         7.83800
H           4.19100        14.98400         8.76500
C           4.26200         9.57600         6.20000
O           3.65100         8.90200         5.09000
H           3.73100         7.91300         5.20900
C           3.75100        10.96300         6.55300
O           4.26400        11.32500         7.84400
C           3.96800        12.65300         8.30000
O           4.70600        12.78900         9.52400
C           4.02300        12.40700        10.72700
C           4.45300        11.05600        11.27600
O           4.39400        10.08700        10.21900
H           4.64500        10.61700         9.41000
C           3.68000        10.82300        12.56400
O           3.83100         9.54800        13.20600
H           3.47800         9.52900        14.14100
C           3.71600        14.87500        11.34200
O           4.25200        15.66100        10.26800
H           3.96000        16.61200        10.37300
C           4.24300        13.50900        11.75000
O           3.73200        13.15900        13.04500
C           4.11000        11.87800        13.57000
O           3.37900        11.76700        14.80100
C           4.09300        12.02500        16.01900
C           3.81100        13.41300        16.56800
O           4.09500        14.49400        15.66700
H           4.00200        14.16400        14.72700
C           4.48700        13.66800        17.90500
O           4.07100        14.94200        18.41700
H           4.07100        14.91500        19.41700
C           3.80300         9.53500        16.74600
O           3.31100         8.83100        15.59700
H           3.52200         7.86100        15.71500
C           3.67500        11.01300        17.07400
O           4.36000        11.23900        18.31400
C           4.05500        12.54300        18.83200
O           4.73100        12.56500        20.09700
C           4.00400        12.35300        21.31600
C           4.38700        10.98600        21.85700
O           4.07400         9.99800        20.86400
H           4.20800        10.44900        19.98200
C           3.70600        10.68400        23.18200
O           4.26900         9.51100        23.78700
H           4.13100         9.51100        24.77800
C           3.59000        14.75300        22.00000
O           4.11500        15.53700        20.91800
H           3.90300        16.49600        21.10500
C           4.18400        13.41000        22.39300
O           3.46700        13.11400        23.60000
C           3.93200        11.86000        24.11900
O           3.29800        11.56000        25.37200
C           3.99000        11.93600        26.57100
C           3.53400        13.31100        27.03200
O           3.87600        14.30700        26.05800
H           3.57800        13.97200        25.16400
C           4.16300        13.63500        28.37700
O           3.55500        14.80500        28.94300
H           3.78000        14.98200        29.90100
C           4.41700         9.55500        27.36100
O           3.85800         8.89000        26.21900
H           3.99700         7.91100        26.37100
C           3.86100        10.92800        27.70200
O           4.42100        11.28000        28.97500
C           3.84200        12.53100        29.37300
O           4.40500        12.72300        30.67900
C           3.71000        12.48900        31.91200
C           3.97800        11.07100        32.39100
O           3.97100        10.12200        31.31400
H           4.52200        10.46900        30.55500
C           3.31100        10.78100        33.72600
O           3.71100         9.46400        34.13100
H           3.52300         9.40800        35.11100
C           3.63500        14.85000        32.68000
O           4.03700        15.47100        31.45100
H           3.95100        16.45000        31.63800
C           4.09400        13.44400        33.03000
O           3.58000        13.10200        34.32600
C           3.77000        11.75900        34.79500
O           2.99800        11.56800        35.99000
C           3.77200        11.87900        37.15800
C           3.57900        13.29200        37.68400
O           3.69200        14.33200        36.70200
H           3.55000        14.00700        35.76700
C           4.28300        13.56400        39.00300
O           3.98600        14.89100        39.45900
H           4.20500        15.00600        40.42800
C           3.76500         9.43600        37.85200
O           3.38000         8.79100        36.63000
H           3.51100         7.80100        36.68800
C           3.48000        10.87300        38.26000
O           4.12600        11.18000        39.50400
C           3.87600        12.50000        40.01000
O           4.63500        12.57400        41.22500
C           7.92400        24.33400         3.10500
C           7.42900        25.71600         3.49600
O           7.74700        26.77000         2.57500
H           7.75100        26.31400         1.68500
C           7.92400        26.10600         4.87900
O           7.41500        27.33900         5.40900
H           7.72000        27.42400         6.35800
C           7.97800        21.96100         4.01500
O           7.73900        21.14900         2.85600
H           7.88900        20.17400         3.01900
C           7.45000        23.37600         4.18600
O           8.07000        23.76300         5.42100
C           7.55400        25.02200         5.87700
O           8.37000        25.13500         7.05200
C           7.71300        24.73300         8.26300
C           8.28800        23.40100         8.71500
O           8.01200        22.41700         7.70800
H           8.07000        22.80100         6.78600
C           7.78600        23.02400        10.10000
O           8.43600        21.87100        10.65400
H           8.17500        21.75400        11.61200
C           7.50300        27.20000         9.10800
O           8.14400        27.85800         8.00600
H           8.37800        28.81600         8.16800
C           7.90700        25.75800         9.36900
O           7.33600        25.28700        10.59800
C           7.98100        24.12200        11.13200
O           7.30800        23.82000        12.36300
C           7.94600        24.22600        13.58300
C           7.32500        25.54800        14.00100
O           7.52900        26.57200        13.01600
H           7.43200        26.24300        12.07700
C           7.79800        25.89600        15.40200
O           7.09200        26.99200        16.00300
H           7.51000        27.17300        16.89200
C           8.18300        21.81800        14.28700
O           7.70500        21.16400        13.10200
H           7.81800        20.18300        13.25800
C           7.65500        23.19400        14.66000
O           8.22000        23.56100        15.92700
C           7.59200        24.76300        16.39400
O           8.38300        25.06200        17.55400
C           7.76700        24.74800        18.81200
C           8.54700        23.56300        19.35800
O           8.49500        22.41100        18.50400
H           8.76100        22.66400        17.57400
C           8.18000        23.00900        20.72500
O           8.81600        21.83100        21.24300
H           8.28300        21.69100        22.07700
C           7.18200        27.09400        19.52900
O           7.69800        27.85100        18.42500
H           7.49100        28.81600        18.58700
C           7.99300        25.84600        19.83900
O           7.71200        25.39700        21.17300
C           8.32900        24.19800        21.66100
O           7.51300        24.05900        22.83400
C           7.98500        24.38600        24.14900
C           7.43500        25.70300        24.67000
O           7.65400        26.72600        23.68800
H           7.71500        26.26300        22.80400
C           7.85500        26.08900        26.08000
O           7.05700        27.14600        26.63100
H           7.46600        27.46100        27.48700
C           7.92000        21.83300        24.84400
O           7.43400        21.14400        23.68200
H           7.45100        20.17900        23.94300
C           7.52000        23.28000        25.08200
O           8.02500        23.55300        26.39700
C           7.63100        24.83500        26.90900
O           8.33700        24.88100        28.15700
C           7.78000        24.41600        29.39500
C           8.25700        23.03300        29.80800
O           7.88000        22.04400        28.84000
H           8.05800        22.54300        27.99200
C           7.86800        22.66800        31.23200
O           8.51700        21.50700        31.77000
H           8.02600        21.30400        32.61700
C           7.75400        26.84500        30.17200
O           8.13100        27.67500        29.06400
H           7.88100        28.63200        29.21400
C           8.22100        25.42500        30.44300
O           7.56200        25.07900        31.67000
C           8.04700        23.83300        32.19100
O           7.24500        23.71500        33.37600
C           7.84600        24.05200        34.63400
C           7.22200        25.33200        35.16700
O           7.48300        26.36800        34.21000
H           7.37300        25.96400        33.30200
C           7.86700        25.85000        36.44200
O           7.39500        27.10200        36.96100
H           7.93100        27.38300        37.75700
C           7.98000        21.63200        35.43700
O           7.22200        20.89800        34.46500
H           7.42600        19.91900        34.45700
C           7.52400        23.05100        35.73200
O           8.17700        23.48000        36.93600
C           7.70100        24.73000        37.45600
O           8.43300        25.04700        38.64900
C           7.85100        24.69300        39.91200
C           8.29000        23.34700        40.46400
O           7.97400        22.29500        39.54100
H           8.01600        22.75100        38.65200
C           7.77100        23.00600        -0.22100
O           8.46500        21.93500         0.43500
H           8.05900        21.86700         1.34700
C           7.72300        27.15100        40.54900
O           8.27100        27.88700        39.44500
H           8.18600        28.86300        39.64200
C           8.19600        25.76100        -1.13500
O           7.65700        25.39900         0.14400
C           8.10000        24.15800         0.71400
O           7.27400        23.98400         1.87400
C           3.58000        20.50100         0.26300
C           4.04000        19.20000        42.97600
O           3.89600        18.21100        41.94700
H           4.43300        18.62200        41.21000
C           3.34800        18.81400         2.20100
O           3.86900        17.63800         2.83700
H           3.38500        17.46100         3.69300
C           3.24600        22.86600         0.98700
O           3.83400        23.59500        -0.10100
H           3.64100        24.57600        -0.09800
C           3.90100        21.53700         1.32800
O           3.15500        21.11900         2.48100
C           3.56600        19.94400         3.19400
O           2.83300        19.73700         4.41000
C           3.41700        20.04500         5.68400