# freq=raman b3lyp/6-31+g(2df,p) geom=connectivity

300 8000.com

0 1
 O                  7.81200000    7.90300000   12.43200000
 C                  8.19600000    8.19600000   13.78400000
 C                  7.65400000    9.51000000   14.32200000
 O                  8.13700000   10.56500000   13.47700000
 H                  7.86100000   10.32200000   12.54700000
 C                  8.06800000    9.80200000   15.75400000
 O                  7.41200000   10.94300000   16.32500000
 H                  7.93900000   11.19500000   17.13700000
 C                  8.36000000    5.72200000   14.54800000
 O                  8.09200000    4.96700000   13.35800000
 H                  8.25200000    3.99600000   13.53500000
 C                  7.82100000    7.12200000   14.79200000
 O                  8.34100000    7.45200000   16.08900000
 C                  7.84500000    8.64400000   16.71400000
 O                  8.64200000    8.78500000   17.89900000
 C                  8.08700000    8.38800000   19.16200000
 C                  8.71600000    7.06700000   19.57500000
 O                  8.54300000    6.11900000   18.51300000
 H                  8.65300000    6.66400000   17.68200000
 C                  8.19600000    6.63000000   20.93500000
 O                  8.69100000    5.39200000   21.46500000
 H                  8.53500000    5.19500000   22.43300000
 C                  7.98800000   10.87900000   19.94000000
 O                  8.32700000   11.62300000   18.76000000
 H                  8.44400000   12.60100000   18.93100000
 C                  8.47900000    9.45900000   20.16700000
 O                  8.05500000    9.04700000   21.47500000
 C                  8.39900000    7.73900000   21.95500000
 O                  7.58500000    7.50100000   23.11300000
 H                  8.14899805    7.34460418   23.87395108
 H                  8.59853187    7.78642034   11.89406246
 H                  9.26326018    8.27214622   13.79158046
 H                  6.58546385    9.48848854   14.27034974
 H                  9.11759729   10.00967476   15.74319607
 H                  6.80845804    8.54308414   16.95955396
 H                  6.75398575    7.07093247   14.85342234
 H                  8.02307889    5.12230898   15.36760652
 H                  9.42479776    5.79092220   14.62772111
 H                  7.02265869    8.29882414   19.09777201
 H                  9.76758406    7.23476182   19.67953202
 H                  9.54823734    9.49769074   20.17859903
 H                  8.32346114   11.45755904   20.77524563
 H                  9.42645095    7.74387782   22.25369843
 H                  7.13872886    6.50721205   20.82545155
 H                  6.91951234   10.84599032   19.98630853

 1 2 1.0 31 1.0
 2 3 1.0 12 1.0 32 1.0
 3 4 1.0 6 1.0 33 1.0
 4 5 1.0
 5
 6 7 1.0 14 1.0 34 1.0
 7 8 1.0
 8
 9 10 1.0 12 1.0 37 1.0 38 1.0
 10 11 1.0
 11
 12 13 1.0 36 1.0
 13 14 1.0
 14 15 1.0 35 1.0
 15 16 1.0
 16 17 1.0 26 1.0 39 1.0
 17 18 1.0 20 1.0 40 1.0
 18 19 1.0
 19
 20 21 1.0 28 1.0 44 1.0
 21 22 1.0
 22
 23 24 1.0 26 1.0 42 1.0 45 1.0
 24 25 1.0
 25
 26 27 1.0 41 1.0
 27 28 1.0
 28 29 1.0 43 1.0
 29 30 1.0
 30
 31
 32
 33
 34
 35
 36
 37
 38
 39
 40
 41
 42
 43
 44
 45

