# freq=raman b3lyp/6-31+g(d,p) geom=connectivity

400 5000.com

0 1
 O                  8.60800000    7.60600000   22.56500000
 C                  9.32700000    7.76300000   23.79600000
 C                  9.18400000    9.19800000   24.27800000
 O                  9.71700000   10.08400000   23.28400000
 H                  9.50800000    9.65000000   22.40800000
 C                  9.86200000    9.41300000   25.62200000
 O                  9.51600000   10.69900000   26.15500000
 H                 10.14600000   11.00800000   26.86800000
 C                  9.09000000    5.29800000   24.65600000
 O                  8.66400000    4.56900000   23.49600000
 H                  8.97800000    3.62000000   23.50200000
 C                  8.82100000    6.78300000   24.84200000
 O                  9.56100000    7.01900000   26.04800000
 C                  9.47300000    8.33300000   26.61800000
 O                 10.35000000    8.38200000   27.75300000
 C                  9.60100000    8.22100000   28.96700000
 C                 10.06700000    6.90300000   29.56300000
 O                  9.88500000    5.84900000   28.60700000
 H                 10.38400000    6.19400000   27.81200000
 C                  9.43400000    6.46600000   30.87400000
 O                  9.98900000    5.22200000   31.32600000
 H                  9.65400000    4.94100000   32.22500000
 C                  9.84500000   10.62800000   29.85200000
 O                 10.37700000   11.26800000   28.68300000
 H                 10.06700000   12.21900000   28.67900000
 C                  9.99300000    9.13800000   30.11400000
 O                  9.46300000    8.83200000   31.41200000
 C                  9.76400000    7.52300000   31.91600000
 O                  8.80800000    7.42500000   32.98200000
 H                  9.23072355    7.51356564   21.84024399
 H                  8.65963892    4.80284040   25.50128475
 H                 10.15024928    5.17035007   24.72291013
 H                  7.77816114    6.94468817   25.01875988
 H                 10.36274353    7.56476096   23.61479120
 H                  8.14151568    9.41057474   24.39174721
 H                 10.92169131    9.37773506   25.47808785
 H                  8.46879486    8.50516182   26.94485218
 H                  9.26993287    7.34795848   33.82002305
 H                 10.27308857   11.12923778   30.69485281
 H                  8.79545624   10.83599235   29.86185241
 H                 11.04756378    8.98839056   30.21604045
 H                  8.54508261    8.22384679   28.79399608
 H                 11.11861736    6.99403156   29.73825465
 H                  8.37363696    6.37799918   30.76092442
 H                 10.77099367    7.44782046   32.26985278

 1 2 1.0 30 1.0
 2 3 1.0 12 1.0 34 1.0
 3 4 1.0 6 1.0 35 1.0
 4 5 1.0
 5
 6 7 1.0 14 1.0 36 1.0
 7 8 1.0
 8
 9 10 1.0 12 1.0 31 1.0 32 1.0
 10 11 1.0
 11
 12 13 1.0 33 1.0
 13 14 1.0
 14 15 1.0 37 1.0
 15 16 1.0
 16 17 1.0 26 1.0 42 1.0
 17 18 1.0 20 1.0 43 1.0
 18 19 1.0
 19
 20 21 1.0 28 1.0 44 1.0
 21 22 1.0
 22
 23 24 1.0 26 1.0 39 1.0 40 1.0
 24 25 1.0
 25
 26 27 1.0 41 1.0
 27 28 1.0
 28 29 1.0 45 1.0
 29 38 1.0
 30
 31
 32
 33
 34
 35
 36
 37
 38
 39
 40
 41
 42
 43
 44
 45

