# freq=raman b3lyp/6-31+g(2d,p) geom=connectivity

473 9000.com

0 1
C           7.72100         7.88000        23.89100
C           7.03100         9.13400        24.40300
O           7.34100        10.13000        23.41800
H           7.09400         9.79500        22.50900
C           7.66700         9.52600        25.72700
O           6.88400        10.64300        26.17300
H           7.28800        10.87100        27.05900
C           8.20600         5.35300        24.60200
O           7.69300         4.59400        23.49700
H           7.81100         3.63000        23.73300
C           7.57800         6.71300        24.85500
O           8.05600         7.18200        26.12400
C           7.44400         8.35800        26.67500
O           8.18100         8.54600        27.89100
C           7.51400         8.32800        29.14300
C           8.07800         7.00600        29.63700
O           7.56200         5.96400        28.79500
H           7.61200         6.21800        27.82900
C           7.69600         6.65400        31.06600
O           8.38100         5.55600        31.68500
H           8.10500         5.42800        32.63700
C           7.27800        10.70500        29.85600
O           7.63400        11.33600        28.61800
H           7.49400        12.32400        28.68500
C           7.89300         9.35700        30.19500
O           7.44300         9.01800        31.51500
C           8.11000         7.82300        31.94500
O           7.53600         7.52500        33.22700
C           8.18000         7.85500        34.46600

