# freq=raman b3lyp/6-31+g(2d,p) geom=connectivity

483 5544/5544.com

0 1
C           8.25200         7.88900         2.82900
C           7.74900         9.21400         3.37700
O           7.76600        10.30100         2.44000
H           7.83800         9.84300         1.55300
C           8.27300         9.59600         4.75200
O           7.40500        10.65900         5.17200
H           7.53100        10.79000         6.15600
C           8.27900         5.42700         3.54500
O           7.98500         4.66600         2.36400
H           8.04700         3.67800         2.50200
C           7.85000         6.85000         3.86400
O           8.50300         7.17200         5.10000
C           7.96700         8.39300         5.62900
O           8.67400         8.64100         6.85300
C           8.12000         8.24700         8.11600
C           8.53100         6.88000         8.63900
O           7.86300         5.94700         7.77800
H           8.04900         6.20300         6.83000
C           8.00200         6.55500        10.02700
O           8.61100         5.36400        10.54600
H           8.25700         5.25300        11.47500
C           8.03400        10.78600         8.98000
O           7.55100        11.26000         7.71400
H           7.34000        12.23500         7.65100
C           8.43800         9.32900         9.13500
O           7.90600         8.96100        10.41600
C           8.29200         7.70100        10.98300
O           7.61100         7.55000        12.23700
C           8.30600         7.87800        13.44900
C           7.90800         9.26900        13.91500
O           8.42200        10.27700        13.03200
H           7.89700        10.07200        12.20500
C           8.34900         9.46100        15.35600
O           7.83400        10.70200        15.86100
H           8.34800        11.11400        16.61300
C           8.47400         5.41500        14.16100
O           7.98800         4.76900        12.97500
H           8.20400         3.79800        13.07500
C           7.99200         6.81800        14.49200
O           8.47200         7.05100        15.82400
C           7.96300         8.31400        16.27500
O           8.71800         8.61200        17.45900
C           8.22500         8.27900        18.76400
C           8.68600         6.91200        19.24300
O           8.22100         5.96100        18.27400
H           8.31400         6.33300        17.35100
C           8.38900         6.48800        20.67200
O           8.94200         5.23600        21.10200
H           8.72800         5.12700        22.07300
C           8.37400        10.69700        19.55100
O           8.72600        11.40600        18.35400
H           8.39900        12.34400        18.47100
C           8.73000         9.24500        19.82400
O           8.32700         8.92000        21.16200
C           8.69000         7.61800        21.64300
O           7.91900         7.49700        22.84700
C           8.64500         7.77100        24.05400
C           8.04700         9.07900        24.54500
O           8.26800        10.10200        23.56300
H           7.90900         9.78900        22.68400
C           8.56400         9.58100        25.88300
O           7.88200        10.71500        26.43800
H           8.41200        10.93700        27.25600
C           8.94000         5.40400        25.02000
O           8.57000         4.81800        23.76300
H           8.46500         3.82600        23.83300
C           8.37500         6.80400        25.19600
O           9.06100         7.19000        26.39600
C           8.49700         8.42300        26.86600
O           9.32200         8.74600        27.99400
C           8.79900         8.35700        29.27300
C           9.33000         7.06900        29.88100
O           9.21500         5.98300        28.95100
H           9.51000         6.32500        28.05900
C           8.57600         6.67700        31.14100
O           9.15100         5.60900        31.90800
H           8.69500         5.49500        32.79100
C           8.39200        10.81200        29.87000
O           9.14500        11.48300        28.84900
H           8.76200        12.39500        28.99600
C           8.94200         9.46400        30.30500
O           8.24600         9.08500        31.50100
C           8.69300         7.85600        32.09400
O           7.79500         7.64500        33.19300
C           8.30500         7.92500        34.50500
C           7.85900         9.29300        34.99300
O           8.05900        10.23900        33.93200
H           8.07400         9.76700        33.05100
C           8.43200         9.67200        36.34900
O           7.95800        10.93800        36.83100
H           8.51700        11.03900        37.65400
C           8.26500         5.59500        35.37600
O           8.15400         4.93300        34.10800
H           8.36700         3.98000        34.32200
C           7.76300         7.01400        35.59400
O           8.40800         7.31600        36.84000
C           7.98900         8.59800        37.32900
O           8.82500         8.69100        38.49200
C           8.12200         8.32700        39.68900
C           8.41500         6.89600        40.10700
O           8.13300         5.89500        39.11700
H           8.23100         6.32000        38.21700
C           7.93100         6.61100        -0.54500
O           8.62700         5.45100        -0.06500
H           8.24200         5.20100         0.82400
C           8.17800        10.75700        40.52200
O           8.63800        11.48600        39.37500
H           8.64700        12.46900        39.55500
C           8.54200         9.31000        -1.29400
O           7.91400         8.94400        -0.05700
C           8.35400         7.67700         0.45200
O           7.50900         7.75000         1.61000
C           3.58500         4.13500         0.47400
C           3.90100         2.70900        42.98300
O           3.36600         1.79500        42.01500
H           3.53900         2.30900        41.17500
C           3.33600         2.44400         2.30600
O           3.52900         1.11500         2.81100
H           3.40300         1.08400         3.80300
C           3.87000         6.51400         1.22500
O           4.50100         7.14400         0.10100
H           4.38800         8.13600         0.16300
C           4.15600         5.05500         1.54100
O           3.47500         4.79900         2.77800
C           3.83100         3.50200         3.27800
O           3.05800         3.45700         4.48600
C           3.88100         3.74100         5.62700
C           3.53400         5.13700         6.11900
O           3.64800         6.12900         5.08800
H           3.42400         5.65100         4.23800
C           4.21800         5.48900         7.43000
O           4.14900         6.82500         7.95100
H           4.44800         6.85300         8.90500
C           3.72800         1.36000         6.55700
O           3.41800         0.52800         5.42900
H           3.88600        -0.34900         5.53800
C           3.39000         2.83000         6.74000
O           3.82300         3.15000         8.07000
C           3.62800         4.52200         8.44300
O           4.43100         4.70400         9.61900
C           3.89500         4.30200        10.88800
C           4.20000         2.89400        11.37500
O           3.99500         1.88600        10.37500
H           4.09100         2.33900         9.48900
C           3.50100         2.56500        12.68300
O           3.73000         1.20900        13.09200
H           3.62100         1.09100        14.07900
C           4.24700         6.67300        11.71500
O           4.76300         7.41500        10.60000
H           4.48500         8.37400        10.64300
C           4.38600         5.19000        12.01900
O           3.79600         4.86100        13.28500
C           4.08200         3.52100        13.71100
O           3.48900         3.46500        15.01700
C           4.22600         3.77400        16.20900
C           3.83100         5.17600        16.64200
O           4.22600         6.08400        15.60400
H           3.77800         5.78000        14.76300
C           4.51200         5.50200        17.96200
O           4.17100         6.81200        18.43700
H           4.67000         6.88400        19.30100
C           4.10700         1.26700        16.87500
O           3.60000         0.46500        15.79900
H           3.80400        -0.51100        15.87700
C           3.76700         2.71400        17.19700
O           4.27500         3.14200        18.46900
C           4.08100         4.46600        18.98700
O           4.92200         4.47000        20.15000
C           4.17700         4.20400        21.34700
C           4.47600         2.82600        21.91300
O           4.10400         1.81300        20.96600
H           4.35500         2.25200        20.10400
C           3.97800         2.65100        23.33800
O           4.26900         1.38500        23.94800
H           3.87400         1.39300        24.86700
C           4.35700         6.69200        22.20700
O           4.89900         7.36600        21.06300
H           4.51100         8.28100        21.17800
C           4.60900         5.20600        22.40500
O           4.00300         5.02700        23.69300
C           4.42300         3.77600        24.25700
O           3.72400         3.70700        25.50800
C           4.45000         3.95100        26.72100
C           4.20600         5.37000        27.20700
O           4.31200         6.27600        26.09900
H           4.04700         5.72700        25.30600
C           4.84400         5.50300        28.58000
O           4.36800         6.74400        29.12200
H           4.55000         6.79100        30.10400
C           4.44500         1.45400        27.41600
O           3.85200         0.82200        26.27300
H           4.19900        -0.11000        26.16400
C           4.15100         2.90100        27.77900
O           4.93100         3.17200        28.95300
C           4.49000         4.39500        29.55900
O           5.16200         4.43300        30.82700
C           4.41400         4.13600        32.01400
C           4.65000         2.72000        32.51500
O           4.46500         1.78000        31.44600
H           4.81400         2.18000        30.59900
C           4.06700         2.41800        33.88600
O           4.62600         1.20100        34.40200
H           4.25000         1.04100        35.31400
C           4.31200         6.53700        32.87500
O           4.81100         7.30600        31.77200
H           4.53400         8.24400        31.98000
C           4.75000         5.10500        33.13600
O           3.99200         4.83500        34.32400
C           4.33200         3.55000        34.86500
O           3.45500         3.42800        35.99400
C           4.08700         3.68400        37.25600
C           3.66200         5.07200        37.70800
O           4.14500         6.07300        36.79900
H           3.97500         5.69200        35.89000
C           4.15500         5.32100        39.12400
O           3.81900         6.61300        39.65200
H           4.01400         6.67300        40.63000
C           3.84500         1.24800        38.03900
O           3.52600         0.60800        36.79500
H           3.59200        -0.38100        36.92900
C           3.46900         2.70700        38.24300
O           3.79000         2.96900        39.61700
C           3.58700         4.30500        40.10100
O           4.32700         4.36500        41.32900
C           8.02600        16.08500         2.94800
C           7.64600        17.46500         3.46000
O           8.12900        18.43800         2.52300
H           7.92000        18.06900         1.61800
C           8.13400        17.76200         4.86800
O           7.74800        19.07200         5.30900
H           8.01700        19.23900         6.25700
C           7.97200        13.61300         3.77100
O           7.64300        12.83600         2.61000
H           7.52600        11.85800         2.78700
C           7.55200        15.06100         3.96600
O           7.87700        15.32800         5.33800
C           7.60100        16.66700         5.77700
O           8.42800        16.75100         6.94700
C           7.85200        16.41600         8.21800
C           8.26200        15.03000         8.68700
O           7.98600        14.06500         7.66100
H           8.15900        14.49800         6.77600
C           7.73000        14.68400        10.06800
O           8.42200        13.59100        10.69100
H           8.03300        13.37800        11.58700
C           7.90600        18.83300         9.04900
O           8.25100        19.57100         7.86700
H           7.94900        20.50500         8.05800
C           8.32000        17.39000         9.28700
O           7.72000        17.04700        10.54400
C           7.96800        15.75600        11.12000
O           7.07900        15.68300        12.24400
C           7.70300        16.04700        13.48400
C           7.24100        17.37100        14.07100
O           7.23800        18.38400        13.05500
H           6.86200        18.08500        12.17800
C           7.93000        17.69000        15.38800
O           7.26000        18.79600        16.01000
H           7.76700        19.04800        16.83400
C           8.23400        13.60100        14.26300
O           7.91900        12.86400        13.07300
H           8.12000        11.88600        13.13200
C           7.53000        14.92800        14.49700
O           8.13100        15.21200        15.76800
C           7.73100        16.48600        16.29500
O           8.57700        16.75600        17.42200
C           8.06800        16.45000        18.72900
C           8.63400        15.10500        19.15500
O           8.42700        14.08100        18.17200
H           8.42900        14.62700        17.33500
C           8.29600        14.68500        20.57600
O           8.71800        13.43200        21.13400
H           8.22000        13.20500        21.97100
C           7.99700        18.91900        19.41100
O           8.67400        19.73400        18.44300
H           8.27900        20.65000        18.50600
C           8.48500        17.51600        19.72900
O           8.03800        17.11000        21.03100
C           8.55600        15.85900        21.50600
O           7.83300        15.61300        22.72100
C           8.43800        16.03700        23.95100
C           7.95200        17.40800        24.39300
O           8.22800        18.42800        23.42200
H           8.03500        18.05800        22.51300
C           8.47700        17.74300        25.78000
O           7.96100        18.99300        26.26100
H           8.09200        18.92200        27.25000
C           8.29500        13.52700        24.61900
O           7.71400        12.72700        23.58000
H           7.97900        11.77100        23.70600
C           8.06500        14.98500        24.98300
O           8.68600        15.38900        26.21200
C           8.12400        16.60600        26.72400
O           8.70600        16.88100        28.00700
C           8.16600        16.43300        29.25900
C           8.90800        15.18300        29.70200
O           8.86200        14.13000        28.72800
H           9.08000        14.59800        27.87200
C           8.41800        14.65500        31.04000
O           9.14000        13.52200        31.54600
H           8.67500        13.22100        32.37800
C           7.65800        18.78500        30.12900
O           7.74200        19.57800        28.93600
H           7.96000        20.52500        29.17300
C           8.30400        17.43500        30.39300
O           7.89000        17.05600        31.71400
C           8.39400        15.76300        32.08000
O           7.55000        15.50000        33.21000
C           8.13500        15.90000        34.45800
C           7.43900        17.15700        34.95300
O           7.37300        18.25400        34.03100
H           7.36000        17.85500        33.11400
C           7.97600        17.56400        36.31600
O           7.32600        18.68300        36.93500
H           7.73900        18.89800        37.81900
C           8.40200        13.44400        35.08600
O           8.11500        12.81600        33.82800
H           8.16900        11.83200        33.99700
C           7.89000        14.81600        35.49500
O           8.52200        15.22400        36.71700
C           7.86100        16.37700        37.25900
O           8.54100        16.66100        38.49000
C           8.01600        16.36600        39.79200
C           8.66300        15.10900        40.34900
O           8.59300        14.07600        39.35500
H           8.81000        14.46900        38.46100
C           8.16800        14.69300        -0.33900
O           8.74700        13.46100         0.11500
H           8.32000        13.25500         0.99500
C           8.00200        18.82400        40.55200
O           8.29300        19.40600        39.27300
H           8.23200        20.40400        39.27500
C           8.37100        17.38900        -1.20400
O           7.71300        17.08700         0.03500
C           8.24800        15.88300         0.60300
O           7.44700        15.55500         1.74700
C           4.12900        12.33600         0.28400
C           4.54200        10.96000        42.86900
O           4.38900        10.00700        41.80700
H           4.35600        10.44800        40.91100
C           3.74500        10.56300         2.03800
O           4.31100         9.36700         2.59400
H           3.82100         9.13700         3.43500
C           4.04000        14.74000         1.12800
O           4.79200        15.42100         0.11200
H           4.50300        16.37700         0.15200
C           4.40500        13.29600         1.43000
O           3.68900        12.98000         2.63300
C           3.97600        11.64700         3.07900
O           3.24700        11.47500         4.30300
C           3.83900        11.93300         5.52800
C           3.35000        13.29200         6.00100
O           3.79600        14.30800         5.09100
H           3.68200        13.92700         4.17300
C           3.81300        13.63200         7.40800
O           3.29200        14.84500         7.97200
H           3.66300        14.99200         8.88800
C           3.99500         9.49300         6.36400
O           3.63900         8.78800         5.16600
H           3.70800         7.79000         5.15700
C           3.54800        10.92200         6.62600
O           4.10000        11.25300         7.90900
C           3.48900        12.47700         8.34100
O           4.18100        12.85000         9.54200
C           3.72000        12.45900        10.84300
C           4.16800        11.08100        11.30200
O           3.97800        10.02600        10.34700
H           4.09400        10.52400         9.48700
C           3.48700        10.72700        12.61400
O           3.73100         9.38500        13.05900
H           3.61500         9.29800        14.04900
C           3.44000        14.83500        11.61700
O           3.93600        15.53200        10.46500
H           3.68200        16.48900        10.60800
C           4.00600        13.46400        11.94700
O           3.36500        13.09400        13.17700
C           3.84800        11.81500        13.61300
O           3.29100        11.55200        14.90900
C           4.13700        11.87700        16.02100
C           3.68800        13.19700        16.62600
O           3.81600        14.21300        15.62200
H           3.50700        13.78700        14.77100
C           4.41600        13.62800        17.88900
O           3.98000        14.88100        18.43600
H           4.23800        15.03300        19.39000
C           4.45400         9.45300        16.75600
O           3.79400         8.84100        15.63800
H           4.04300         7.87700        15.73200
C           4.05200        10.86400        17.15200
O           4.61800        11.24600        18.41400
C           4.12000        12.51000        18.87500
O           4.78500        12.58600        20.14500
C           4.08000        12.24600        21.34800
C           4.50100        10.88200        21.87000
O           4.07500         9.93700        20.87800
H           4.12900        10.27700        19.93900
C           3.87200        10.62700        23.23000
O           4.14800         9.35300        23.83100
H           3.81100         9.19900        24.76000
C           3.87900        14.72300        22.08500
O           4.31700        15.41600        20.90700
H           4.47200        16.39500        21.04500
C           4.44100        13.33500        22.34500
O           3.91000        13.07900        23.65400
C           4.21400        11.77400        24.16700
O           3.60000        11.66800        25.45900
C           4.44300        11.89800        26.59800
C           4.06300        13.26100        27.15300
O           4.21400        14.32300        26.20000
H           3.94400        13.89600        25.33700
C           4.53100        13.56400        28.56700
O           3.95100        14.81200        28.97200
H           4.06800        14.90200        29.96100
C           4.44500         9.46200        27.31900
O           3.73700         8.82600        26.24500
H           3.83800         7.83600        26.34600
C           4.05800        10.89000        27.66800
O           4.51400        11.20000        28.99300
C           4.06100        12.46200        29.50300
O           4.76000        12.50400        30.75600
C           3.99300        12.32700        31.95500
C           4.32800        10.91700        32.41300
O           3.98900         9.93800        31.42100
H           4.36500        10.23700        30.54400
C           3.68900        10.70300        33.77600
O           3.96100         9.39200        34.29000
H           3.71900         9.25900        35.25200
C           3.75400        14.72900        32.56500
O           4.48600        15.33800        31.49200
H           4.26300        16.31300        31.50200
C           4.27900        13.37600        33.01700
O           3.74800        13.05200        34.31000
C           4.10600        11.75000        34.79600
O           3.37600        11.47700        36.00000
C           4.13000        11.84800        37.16400
C           3.76500        13.23700        37.66100
O           4.15800        14.29100        36.77100
H           3.66500        14.21400        35.90400
C           4.52900        13.53900        38.93900
O           4.28200        14.83600        39.50100
H           4.85400        14.88600        40.32000
C           4.23800         9.44200        38.08300
O           3.73100         8.73500        36.94100
H           4.04200         7.78900        37.03100
C           3.72700        10.86400        38.25000
O           4.31900        11.20500        39.51200
C           4.10100        12.53700        39.99900
O           4.92200        12.58300        41.17500
C           7.75900        24.15500         2.91200
C           7.16200        25.46400         3.40400
O           7.19800        26.57100         2.49200
H           7.17800        26.21200         1.55900
C           7.75400        25.91500         4.73000
O           7.05600        27.05900         5.24200
H           7.38300        27.21400         6.17500
C           8.16500        21.72600         3.82700
O           7.63400        21.08700         2.65700
H           8.05100        20.19000         2.51200
C           7.61400        23.12900         4.02400
O           8.07600        23.58500         5.30300
C           7.50100        24.82000         5.75400
O           8.08700        25.10400         7.03200
C           7.44700        24.66400         8.23900
C           8.15700        23.43100         8.77200
O           8.26000        22.44300         7.73700
H           8.42000        22.96900         6.90200
C           7.58800        22.95600        10.09900
O           8.36100        21.89600        10.67900
H           7.97700        21.60700        11.55600
C           6.99900        27.04500         8.94700
O           7.63600        27.64200         7.80800
H           7.44400        28.62300         7.83000
C           7.57400        25.69600         9.34800
O           6.86100        25.26500        10.51600
C           7.60100        24.15200        11.03800
O           6.89300        23.82400        12.24200
C           7.53300        24.17300        13.47800
C           7.07100        25.49800        14.06300
O           7.17500        26.51300        13.05400
H           6.66900        26.26700        12.22700
C           7.74600        25.93100        15.35400
O           7.23100        27.17400        15.85400
H           7.59100        27.36300        16.76800
C           7.87300        21.70700        14.33100
O           7.48000        21.03700        13.12400
H           7.51700        20.04100        13.19500
C           7.42500        23.13700        14.58400
O           8.02800        23.62500        15.79200
C           7.47200        24.82100        16.35600
O           8.32300        25.04300        17.49000
C           7.65600        24.77200        18.73200
C           8.28400        23.47400        19.21400
O           8.00200        22.36500        18.34800
H           8.19200        22.71900        17.43200
C           7.89300        22.99400        20.60200
O           8.69800        21.89000        21.04000
H           8.35300        21.59400        21.93000
C           7.14300        27.14700        19.58000
O           7.33400        27.86200        18.35100
H           7.35600        28.84800        18.51900
C           7.90900        25.84900        19.77400
O           7.58900        25.32900        21.07300
C           8.24200        24.13900        21.53900
O           7.45200        23.87200        22.70700
C           7.94000        24.24500        24.00400
C           7.44700        25.59300        24.50200
O           7.66000        26.64400        23.54800
H           7.39700        26.29300        22.65000
C           8.05300        25.93300        25.85400
O           7.51200        27.15600        26.37500
H           7.87500        27.32500        27.29100
C           8.05000        21.75500        24.67600
O           7.79000        21.04000        23.45900
H           8.14400        20.11800        23.61500
C           7.62000        23.16900        25.02900
O           8.09100        23.47400        26.35100
C           7.69100        24.78400        26.78000
O           8.51700        25.02400        27.92800
C           8.05700        24.63900        29.23200
C           8.57200        23.31100        29.76400
O           8.06600        22.29700        28.88500
H           8.39500        22.50800        27.96400
C           8.06700        22.88100        31.13200
O           8.68400        21.74900        31.76000
H           8.22400        21.49200        32.61000
C           7.65700        26.98300        29.95500
O           8.43200        27.83000        29.09400
H           8.22400        28.79900        29.22700
C           8.29800        25.65700        30.33400
O           7.67300        25.29600        31.57400
C           8.20800        24.06300        32.07700
O           7.38300        23.74200        33.20600
C           7.87300        24.21000        34.47200
C           7.26500        25.49500        35.01000
O           7.41100        26.49200        33.98800
H           7.39600        26.11100        33.06300
C           7.98200        25.85900        36.29900
O           7.64300        27.08900        36.95600
H           7.89000        26.99900        37.92000
C           8.26800        21.79800        35.19600
O           7.71300        21.06500        34.09400
H           7.58000        20.10500        34.33800
C           7.69200        23.15800        35.55400
O           8.44000        23.57200        36.70700
C           7.80800        24.72000        37.29100
O           8.58800        24.94500        38.47400
C           7.95000        24.60500        39.71400
C           8.44300        23.27200        40.25300
O           8.49000        22.21200        39.28700
H           8.85200        22.63300        38.45600
C           7.70900        22.96400        -0.51400
O           8.07900        21.70000         0.05600
H           7.71900        21.56600         0.98000
C           7.89000        27.01400        40.52100
O           8.76700        27.56200        39.52600
H           8.66800        28.55100        39.63600
C           8.34300        25.59700        -1.26700
O           7.56800        25.35700        -0.08400
C           7.94700        24.09100         0.47700
O           7.21800        23.71900         1.65600
C           3.64400        20.50000         0.40700
C           4.09800        19.13200        42.97600
O           3.76600        18.13500        41.99900
H           4.06700        18.55000        41.14000
C           3.44600        18.81500         2.24900
O           3.96300        17.61400         2.84000
H           3.66900        17.57600         3.79400
C           3.71000        22.89500         1.10700
O           3.85900        23.54400        -0.16400
H           3.69000        24.52700        -0.09200
C           4.08100        21.47200         1.49100
O           3.46900        21.16100         2.75100
C           3.88400        19.87800         3.24300
O           3.07100        19.73200         4.41700
C           3.68300        20.13400         5.65100