# freq=raman b3lyp/6-31+g(2d,p) geom=connectivity
290 10000.com
290 10000.com
C           8.34200         7.77500         2.89800
0 1
O           8.21000        10.25600         2.57800
H           7.78400        10.08900         1.68900
C           8.34600         9.46700         4.82600
O           7.73200        10.63500         5.39200
H           8.23200        10.87600         6.22400
C           8.56200         5.38400         3.77300
O           8.22500         4.62300         2.60400
H           8.30700         3.63200         2.70700
C           7.94000         6.75900         3.95400
O           8.40800         7.14800         5.25400
C           7.90000         8.37900         5.78800
O           8.67300         8.49000         6.99100
C           8.07200         8.21000         8.26400
C           8.49800         6.83400         8.74900
O           8.02700         5.80600         7.86600
H           8.14500         5.91700         6.88000
C           8.08200         6.57700        10.18900
O           8.49600         5.30000        10.69400
H           7.99500         5.30600        11.56000
C           8.31800        10.81700         9.12300
O           8.54300        11.48300         7.87300
H           8.58100        12.46800         8.04000
C           8.38900         9.30500         9.26900
O           7.88800         9.02800        10.58400
C           8.33200         7.76600        11.10200
O           7.60700         7.54400        12.32100
C           8.25400         7.90000        13.55100
C           7.65800         9.20300        14.05700
O           8.08100        10.19800        13.11400
H           7.62300        10.07100        12.23400
C           8.10200         9.72600        15.41400
O           7.48800        10.89200        15.98200
H           8.03800        11.14200        16.78000
C           8.65800         5.55700        14.33600
O           8.04100         4.74300        13.32800
H           8.37100         3.82600        13.55200
C           7.96200         6.87600        14.63500
O           8.57400         7.33200        15.85000
C           8.00000         8.54300        16.36400
O           8.77900         8.73400        17.55400
C           8.10500         8.39300        18.77400
C           8.57500         7.05800        19.32900
O           8.06400         6.07000        18.42100
H           8.40500         6.32300        17.51600
C           8.25900         6.65900        20.76100
O           9.11200         5.61200        21.24600
H           8.69900         5.21500        22.06600
C           8.06800        10.90200        19.39000
O           8.70100        11.60700        18.31200
H           8.69600        12.59900        18.43500
C           8.38900         9.47500        19.80200
O           7.84300         9.12100        21.08100
C           8.42000         7.91500        21.60200
O           7.75000         7.64500        22.84200
C           8.42200         7.94400        24.07400
C           7.87300         9.26000        24.60000
O           8.23500        10.28100        23.65800
H           7.71900        10.17000        22.80800
C           8.42900         9.65300        25.95900
O           7.82500        10.82000        26.53600
H           8.21500        10.93000        27.45000
C           8.63300         5.49400        24.83900
O           8.25500         4.68400        23.71600
H           8.37100         3.73300        24.00300
C           8.03000         6.86900        25.07500
O           8.49800         7.25100        26.37700
C           8.01900         8.51000        26.87300
O           8.74600         8.78000        28.08000
C           8.07800         8.47500        29.31300
C           8.81400         7.20000        29.68700
O           8.69000         6.09600        28.77800
H           8.66000         6.50300        27.86500
C           8.53000         6.78400        31.12200
O           9.17600         5.57000        31.52900
H           8.82800         5.41500        32.45400
C           8.09800        10.89800        29.99700
O           8.54500        11.65800        28.86500
H           8.34700        12.61300        29.08400
C           8.59700         9.49700        30.31100
O           8.14100         9.17700        31.63400
C           8.73700         7.94900        32.07700
O           7.99700         7.60800        33.25800
C           8.50500         7.93500        34.55900
C           7.91500         9.24900        35.04500
O           8.18700        10.31500        34.12400
H           8.01800        10.11800        33.15800
C           8.28900         9.58600        36.47900
O           7.62500        10.75000        36.99200
H           8.01200        10.89200        37.90300
C           8.46200         5.47900        35.21800
O           8.04800         4.76700        34.04300
H           8.18200         3.77800        34.10700
C           8.04800         6.89800        35.57300
O           8.64200         7.22700        36.83700
C           8.09700         8.41500        37.42900
O           8.97500         8.54100        38.55700
C           8.52300         8.17900        39.87000
C           9.01100         6.80900        40.31100
O           8.93100         5.86100        39.23700
H           9.04900         6.23800        38.31800
C           8.29200         6.49300        -0.45500
O           8.82400         5.32300         0.18300
H           8.35400         5.10200         1.03800
C           7.95300        10.77600        40.46800
O           8.59300        11.46100        39.38200
H           8.43700        12.41400        39.64100
C           8.54500         9.41100        -1.29700
O           7.96100         8.90500        -0.08800
C           8.43200         7.67800         0.48700
O           7.63200         7.55200         1.67100
C           4.14600         4.37400         0.26600
C           4.58100         3.01500        42.86100
O           4.27100         1.93700        41.96600
H           4.72400         2.08500        41.08600
C           4.07800         2.67800         2.18900
O           4.50800         1.41500         2.71600
H           4.07900         1.20200         3.59400
C           4.02200         6.78600         1.10400
O           4.30900         7.48100        -0.11800
H           4.02500         8.42800         0.03100
C           4.47700         5.36100         1.37400
O           4.04700         4.98900         2.69100
C           4.48000         3.72500         3.21500
O           3.53900         3.70700         4.29800
C           4.21300         3.89500         5.55100
C           3.90100         5.28100         6.09000
O           4.33100         6.32500         5.20500
H           4.05500         6.14400         4.26100
C           4.56800         5.54200         7.43100
O           4.18900         6.79000         8.02900
H           4.29600         6.76300         9.02300
C           4.07500         1.46800         6.18300
O           3.53600         0.74800         5.06500
H           3.75300        -0.22300         5.16400
C           3.80400         2.89800         6.62300
O           4.43300         3.10900         7.89500
C           4.09200         4.42700         8.34800
O           4.77500         4.37900         9.60900
C           3.97800         4.17600        10.78400
C           4.39400         2.78900        11.24400
O           3.93500         1.80600        10.30500
H           4.22300         2.11600         9.39900
C           3.94200         2.48400        12.66300
O           4.54400         1.30300        13.21300
H           4.18200         1.21000        14.14000
C           4.09900         6.56500        11.54500
O           4.70100         7.21800        10.41700
H           4.70200         8.20600        10.57100
C           4.35700         5.11500        11.91900
O           3.92800         4.90300        13.27100
C           4.37000         3.58400        13.62100
O           3.50800         3.63900        14.76800
C           4.18100         3.90300        16.00700
C           3.85400         5.31100        16.47800
O           4.21900         6.34400        15.55000
H           3.80300         6.12400        14.66800
C           4.38600         5.61300        17.86900
O           3.82300         6.84700        18.33600
H           4.03200         7.00400        19.30200
C           4.32000         1.52800        16.89500
O           3.88600         0.72700        15.78600
H           4.25000        -0.20500        15.81000
C           3.72900         2.91700        17.07200
O           4.19000         3.25400        18.38800
C           3.89200         4.57500        18.86300
O           4.57700         4.68600        20.11900
C           4.02200         4.40900        21.41300
C           4.44800         3.03000        21.88900
O           4.00400         2.10800        20.88300
H           4.25200         2.48100        19.99000
C           3.89500         2.66500        23.25600
O           4.37100         1.36500        23.63200
H           4.29700         1.20600        24.61600
C           4.14000         6.87800        22.15000
O           4.29300         7.47700        20.85500
H           4.26500         8.47000        20.97700
C           4.45600         5.42300        22.45900
O           3.94600         5.12500        23.76600
C           4.23200         3.79300        24.21800
O           3.57900         3.72200        25.49400
C           4.38800         3.86000        26.67200
C           4.07300         5.23300        27.24300
O           4.19300         6.26700        26.25500
H           3.68800         5.89100        25.47800
C           4.97200         5.45200        28.44800
O           4.81700         6.77200        28.99000
H           5.33400         6.90400        29.83600
C           4.45800         1.51800        27.24000
O           4.22600         0.72300        26.06800
H           4.41800        -0.25600        26.13600
C           3.81100         2.83500        27.63400
O           4.41000         3.03900        28.92300
C           4.47700         4.38600        29.41200
O           5.14900         4.42200        30.67900
C           4.29700         4.20100        31.81200
C           4.49100         2.78000        32.31400
O           3.91600         1.87600        31.35800
H           4.21900         2.14700        30.44500
C           3.89000         2.48400        33.67900
O           4.22900         1.19000        34.19800
H           3.88200         1.05300        35.12600
C           4.23400         6.58500        32.75600
O           4.89800         7.27300        31.68600
H           4.52200         8.20000        31.66100
C           4.61000         5.12800        32.97500
O           3.93900         4.79500        34.19900
C           4.33100         3.51100        34.70900
O           3.55400         3.47200        35.91400
C           4.29900         3.83300        37.08600
C           3.83800         5.22700        37.47800
O           4.15800         6.21400        36.48700
H           3.90300         5.83300        35.59800
C           4.31900         5.58200        38.87600
O           3.68800         6.75300        39.41300
H           3.98200         6.93700        40.35100
C           4.29900         1.50900        37.95600
O           3.74700         0.74600        36.87300
H           4.02200        -0.19200        37.08200
C           3.79200         2.92200        38.19300
O           4.34700         3.24600        39.47500
C           3.97900         4.55300        39.94100
O           4.79100         4.74800        41.10800
C           7.89300        15.98900         3.07800
C           7.36600        17.31100         3.61200
O           7.59200        18.40200         2.70700
H           7.14300        17.89200         1.97300
C           7.98300        17.70700         4.94400
O           7.51600        18.93000         5.53200
H           7.73500        19.01400         6.50400
C           8.23700        13.57600         3.83800
O           7.80400        12.83300         2.68900
H           8.04900        11.86800         2.77300
C           7.67600        14.95000         4.16600
O           8.36400        15.39400         5.34500
C           7.82600        16.57900         5.95000
O           8.62800        16.91100         7.09200
C           8.06700        16.57100         8.36800
C           8.62300        15.24500         8.86300
O           8.54800        14.12600         7.96900
H           8.64300        14.50900         7.05000
C           8.01000        14.86700        10.20100
O           8.94300        13.94100        10.77600
H           8.48100        13.62400        11.60500
C           7.31600        18.90600         9.03800
O           7.90100        19.60500         7.93000
H           7.83200        20.56800         8.18900
C           8.14500        17.68400         9.40100
O           7.53300        17.24400        10.62200
C           8.06700        16.03300        11.17600
O           7.16400        15.81900        12.27000
C           7.80200        16.14000        13.51500
C           7.10700        17.30900        14.19400
O           7.23400        18.36400        13.23000
H           6.90900        18.03700        12.34200
C           7.74000        17.77800        15.49400
O           7.09000        18.91600        16.07900
H           7.34700        19.16000        17.01400
C           8.28100        13.65200        14.27600
O           7.84300        12.97600        13.08800
H           7.77200        11.99100        13.24500
C           7.67900        15.02200        14.53700
O           8.24600        15.34500        15.81500
C           7.71200        16.54800        16.38600
O           8.59200        16.81600        17.48800
C           8.12200        16.44400        18.79100
C           8.73000        15.15400        19.31800
O           8.59000        14.16600        18.28700
H           8.48300        14.69700        17.44600
C           8.14000        14.68100        20.63700
O           8.80800        13.52400        21.16100
H           8.50600        13.21700        22.06400
C           7.62500        18.80000        19.73900
O           7.99200        19.55500        18.57500
H           7.91900        20.54500        18.70100
C           8.30600        17.45200        19.91400
O           7.69000        17.04500        21.14400
C           8.15000        15.79300        21.67400
O           7.44100        15.70300        22.91800
C           8.06700        16.11900        24.14100
C           7.34900        17.35800        24.65000
O           7.74200        18.44900        23.80400
H           7.66600        18.09100        22.87400
C           7.73500        17.70100        26.08000
O           6.98600        18.77000        26.67700
H           7.39100        18.91400        27.58000
C           8.60700        13.71300        24.88400
O           8.31500        13.02400        23.65900
H           8.68500        12.09800        23.72700
C           7.89200        15.02200        25.17700
O           8.46000        15.39400        26.44100
C           7.73200        16.49500        27.00500
O           8.41500        16.86000        28.21300
C           7.89300        16.42700        29.47700
C           8.64300        15.24700        30.07500
O           8.82800        14.25500        29.05400
H           9.19800        14.74800        28.26600
C           8.11000        14.77000        31.41600
O           8.81200        13.73300        32.11600
H           8.24700        13.32600        32.83300
C           7.84300        18.94200        30.28500
O           8.02200        19.66100        29.05500
H           8.00100        20.65800        29.12100
C           8.12400        17.47300        30.55500
O           7.61300        17.13400        31.85300
C           8.22100        15.94300        32.37500
O           7.33800        15.86100        33.50300
C           7.89900        16.14100        34.79500
C           7.24900        17.41400        35.31200
O           7.21600        18.38900        34.26000
H           7.00100        17.94800        33.38900
C           7.93300        17.83300        36.60300
O           7.30200        19.01400        37.12000
H           7.82100        19.23400        37.94600
C           8.25400        13.72600        35.66800
O           7.77200        12.96600        34.55100
H           7.97600        11.98700        34.52900
C           7.55200        15.06700        35.81300
O           8.01200        15.47400        37.11000
C           7.65300        16.75800        37.64000
O           8.49100        16.94100        38.79000
C           7.96000        16.45700        40.03200
C           8.64800        15.18300        40.49100
O           8.52900        14.09100        39.56700
H           8.74700        14.38600        38.63700
C           8.11100        14.75500        -0.22000
O           8.83800        13.65800         0.35300
H           8.33400        13.36400         1.16400
C           7.57600        18.99200        40.67900
O           8.21400        19.64100        39.56900
H           8.23500        20.59000        39.88400
C           8.05500        17.59900        -1.02700
O           7.43800        17.08400         0.16200
C           8.08000        15.93600         0.73600
O           7.19900        15.72800         1.84900
C           4.00700        12.31400         0.38100
C           4.15100        10.86200        42.88500
O           3.34100        10.07500        42.00100
H           3.69800        10.17700        41.07300
C           3.70200        10.60600         2.24800
O           4.15500         9.33700         2.74300
H           3.75100         9.22700         3.65100
C           4.01900        14.82800         1.10100
O           4.71600        15.55700         0.07900
H           4.44200        16.51900         0.06100
C           4.35800        13.37800         1.40800
O           3.76800        13.02200         2.66600
C           4.05600        11.72700         3.21100
O           3.16900        11.69400         4.33900
C           3.75200        11.94900         5.62500
C           3.55600        13.35900         6.15900
O           3.77300        14.41600         5.21300
H           3.38400        14.10800         4.34400
C           4.32000        13.71800         7.42300
O           4.04400        14.97600         8.05500
H           4.11200        14.81200         9.03900
C           3.86500         9.60200         6.46800
O           3.60100         8.92100         5.23300
H           3.87000         7.98900         5.47700
C           3.33500        11.00100         6.73800
O           4.04700        11.36500         7.92900
C           3.84900        12.69100         8.44100
O           4.62300        12.69300         9.64900
C           3.84100        12.40500        10.81600
C           4.18900        11.03900        11.38500
O           3.92700         9.99500        10.43700
H           4.30200        10.24600         9.54400
C           3.49300        10.77200        12.70900
O           3.89200         9.47300        13.17100
H           3.73700         9.44500        14.15800
C           3.38200        14.77800        11.67600
O           3.80500        15.73200        10.69200
H           3.44000        16.60700        11.01200
C           4.15000        13.47800        11.84800
O           3.69200        13.17600        13.17400
C           3.97500        11.85600        13.66000
O           3.26300        11.91700        14.90400
C           4.15000        12.09700        16.01700
C           3.93100        13.47000        16.63300
O           4.49200        14.42900        15.72500
H           4.21900        14.09300        14.82300
C           4.49700        13.78300        18.00900
O           3.94800        15.02100        18.48400
H           4.12800        15.05900        19.46700
C           4.04200         9.73200        16.88100
O           3.44000         9.06000        15.76600
H           3.74600         8.11500        15.87700
C           3.77200        11.19800        17.18300
O           4.36400        11.35000        18.48100
C           4.12500        12.67500        18.98000
O           4.84000        12.93000        20.19800
C           4.11000        12.55600        21.37600
C           4.56800        11.20400        21.89600
O           4.19300        10.08900        21.07300
H           4.28700        10.45500        20.14700
C           3.99800        10.81200        23.24900
O           4.65500         9.59800        23.64100
H           4.28400         9.33600        24.53200
C           3.72800        14.99000        22.21500
O           4.03700        15.71200        21.01400
H           3.76000        16.65100        21.21900
C           4.26500        13.59300        22.47700
O           3.66700        13.19600        23.71900
C           4.25100        11.97400        24.19500
O           3.49000        11.83000        25.40400
C           4.18000        11.99400        26.65100
C           3.79900        13.32700        27.27500
O           3.86500        14.37600        26.29800
H           3.45100        13.97300        25.48200
C           4.57400        13.70400        28.52700
O           4.17200        14.98900        29.02600
H           4.32900        15.07300        30.00900
C           4.18200         9.51500        27.64400
O           3.82100         9.06200        26.33200
H           3.86000         8.06300        26.36700
C           3.93900        11.00900        27.78300
O           4.71300        11.32500        28.94900
C           4.28400        12.57700        29.50500
O           4.88600        12.58100        30.80700
C           4.07300        12.45000        31.98200
C           4.18100        11.02100        32.48800
O           4.20100         9.99700        31.48200
H           4.57700        10.26700        30.59600
C           3.36900        10.75500        33.74500
O           3.48000         9.39900        34.20100
H           3.38700         9.32600        35.19400
C           3.72600        14.78300        32.75100
O           4.27600        15.37700        31.56600
H           3.86200        16.28700        31.56700
C           4.37300        13.44900        33.08700
O           3.77900        13.11800        34.35100
C           4.01700        11.74600        34.69900
O           3.31900        11.67000        35.95000
C           3.99300        11.91600        37.19200
C           3.58600        13.27900        37.72800
O           4.00300        14.30500        36.81700
H           3.82800        13.96100        35.89400
C           4.17500        13.55400        39.10200
O           3.83800        14.86700        39.57300
H           4.27800        15.05100        40.45200
C           4.19000         9.50900        37.89100
O           3.79900         8.81300        36.69800
H           3.75700         7.81600        36.75900
C           3.63500        10.87900        38.24400
O           4.24200        11.16200        39.51300
C           3.78100        12.41700        40.03200
O           4.62100        12.59400        41.18200
C           7.81300        24.24500         3.05700
C           7.08300        25.48000         3.55900
O           7.53900        26.52600         2.68800
H           7.34600        26.36900         1.72000
C           7.46700        25.92100         4.96200
O           6.71400        27.02000         5.49500
H           7.05200        27.06500         6.43500
C           7.95200        21.76000         3.89700
O           7.64100        21.06300         2.68200
H           7.86800        20.12100         2.92600
C           7.57500        23.21100         4.14500
O           8.09400        23.54800         5.44000
C           7.43200        24.73200         5.90900
O           8.02800        25.07000         7.17000
C           7.46500        24.58600         8.39800
C           7.95400        23.19200         8.75900
O           7.71700        22.12200         7.83300
H           7.93600        22.49800         6.93200
C           7.40400        22.83000        10.12900
O           7.97200        21.63300        10.68000
H           7.68100        21.48900        11.62600
C           7.27100        27.00600         9.20100
O           7.19400        27.68900         7.94200
H           7.08600        28.68300         7.98800
C           7.83900        25.61800         9.44900
O           7.32300        25.17400        10.71200
C           7.81500        23.89400        11.13300
O           7.19800        23.69900        12.41400
C           7.81600        24.06400        13.65600
C           7.23800        25.37500        14.16400
O           7.40000        26.45800        13.23600
H           7.11900        26.08100        12.35400
C           7.67200        25.82900        15.54800
O           7.06600        26.98900        16.13700
H           7.59000        27.22800        16.95500
C           8.11400        21.64300        14.27900
O           7.55900        20.96500        13.14300
H           7.32900        20.01300        13.34300
C           7.67500        23.02000        14.75100
O           8.28300        23.51800        15.95200
C           7.58500        24.64600        16.50000
O           8.23500        24.93500        17.74600
C           7.69500        24.40500        18.96600
C           8.32900        23.11500        19.45900
O           7.98000        22.14100        18.46400
H           8.24500        22.40200        17.53500
C           7.96900        22.74400        20.88900
O           8.70200        21.63600        21.43300
H           8.37300        21.41200        22.35100
C           7.43700        26.93300        19.64900
O           7.93900        27.56200        18.46100
H           7.84300        28.54900        18.59100
C           7.93900        25.53200        19.95700
O           7.54200        25.05600        21.25100
C           8.18800        23.91400        21.83300
O           7.33900        23.70300        22.97000
C           7.92700        24.12100        24.21000
C           7.29100        25.42200        24.67000
O           7.33400        26.46900        23.68900
H           7.26700        26.12100        22.75400
C           7.85300        25.83000        26.02200
O           7.40400        27.13400        26.41900
H           7.71100        27.37100        27.34100
C           7.99900        21.70600        25.11500
O           7.81600        20.95000        23.90900
H           7.70600        19.95900        23.98500
C           7.53800        23.14100        25.30600
O           7.99400        23.54400        26.60500
C           7.46200        24.79500        27.06500
O           8.23900        25.06300        28.24100
C           7.70400        24.72900        29.53000
C           8.44400        23.46800        29.94600
O           8.30200        22.40000        28.99800
H           8.35600        22.77100        28.07100
C           7.95900        23.10500        31.34000
O           8.59100        21.97000        31.94900
H           8.14900        21.70600        32.80600
C           7.55000        27.18500        30.18700
O           8.15700        27.83600        29.06100
H           8.03400        28.80100        29.29300
C           7.99800        25.78700        30.58100
O           7.44500        25.46600        31.86500
C           8.12600        24.27700        32.29300
O           7.30500        24.00700        33.43900
C           7.74800        24.30800        34.77000
C           7.21100        25.65500        35.22800
O           7.58500        26.71800        34.34000
H           7.49300        26.31800        33.42800
C           7.67700        25.91200        36.65100
O           7.13200        27.07500        37.29100
H           7.71200        27.45500        38.01200
C           7.78300        21.76600        35.47400
O           7.37700        21.22600        34.20800
H           7.42500        20.24700        34.40200
C           7.38400        23.20600        35.75200
O           7.85300        23.44700        37.08600
C           7.39700        24.72400        37.55700
O           8.30900        24.88300        38.65400
C           7.77500        24.50900        39.93200
C           8.35000        23.22200        40.50000
O           8.12800        22.23200        39.48500
H           8.42200        22.65300        38.62700
C           7.87500        22.75600        -0.20100
O           8.58100        21.66200         0.40200
H           8.19600        21.54700         1.31700
C           7.72300        27.03900        40.65200
O           8.30500        27.75900        39.55600
H           8.19500        28.73100        39.76700
C           8.13300        25.60500        -1.13600
O           7.51600        25.20100         0.09500
C           8.05100        23.99600         0.66100
O           7.22100        23.82500         1.81900
C           3.81000        20.51700         0.37800
C           4.02500        19.09100        42.93500
O           3.69000        18.03400        42.02400
H           4.13100        18.36200        41.18800
C           3.47600        18.83600         2.26200
O           3.80400        17.54700         2.80000
H           3.49600        17.42000         3.74300
C           3.82700        22.94900         1.11100
O           4.36700        23.71100         0.02100
H           4.17300        24.65900         0.27400
C           4.21800        21.51900         1.44600
O           3.56400        21.23200         2.69100
C           3.88900        19.93900         3.22200
O           3.11600        19.86700         4.42900
C           3.72900        20.22700         5.67600
C           3.50400        21.64900         6.16300