# freq=raman b3lyp/6-31+g(2d,p) geom=connectivity

400 6358/6358.com

0 1
C           9.36900         7.91700         2.91500
C           9.24700         9.33400         3.45000
O           9.63900        10.37700         2.54500
H           9.65800         9.93800         1.64600
C           9.84100         9.48500         4.84100
O           9.35300        10.65500         5.51500
H           9.83800        10.92800         6.34600
C           8.99300         5.44400         3.62400
O           8.49200         4.94600         2.37400
H           8.64400         3.95800         2.33700
C           8.86700         6.92300         3.95000
O           9.61400         7.06700         5.16700
C           9.33900         8.35800         5.72900
O          10.05200         8.51200         6.96500
C           9.54400         8.15800         8.26000
C           9.55700         6.72300         8.76000
O           9.13300         5.76400         7.78000
H           9.54400         6.15000         6.95400
C           9.02300         6.61800        10.17900
O           9.42100         5.37000        10.76400
H           9.20000         5.28700        11.73600
C           9.78000        10.60300         9.14500
O          10.42500        11.29000         8.06200
H          10.39800        12.27500         8.23200
C          10.00600         9.11400         9.34800
O           9.25600         8.85400        10.54400
C           9.56900         7.61300        11.19100
O           8.94600         7.54600        12.48300
C           9.62400         7.78000        13.72600
C           9.13800         9.13300        14.21900
O           9.23800        10.18300        13.24600
H           9.29500         9.77500        12.33500
C           9.77500         9.45600        15.56100
O           9.39800        10.76200        16.02100
H           9.99200        10.91300        16.81100
C           9.52100         5.34600        14.41100
O           8.93600         4.86700        13.19100
H           8.85500         3.87200        13.25600
C           9.29600         6.78900        14.83000
O           9.98400         7.09500        16.05200
C           9.49700         8.34600        16.56100
O          10.39800         8.56600        17.65600
C           9.82600         8.24100        18.93200
C          10.09000         6.83700        19.45300
O           9.94000         5.82800        18.44500
H          10.11200         6.14800        17.51300
C           9.33000         6.50800        20.72800
O           9.69900         5.23100        21.27000
H           9.13900         4.92200        22.03900
C           9.79100        10.63200        19.71800
O          10.22100        11.31000        18.52900
H          10.20300        12.31000        18.56000
C          10.15300         9.19800        20.06600
O           9.39100         8.85100        21.23200
C           9.67900         7.55400        21.77400
O           8.80600         7.34900        22.89500
C           9.23900         7.62900        24.23400
C           8.95300         9.08000        24.58700
O           9.56700        10.05900        23.73600
H           9.42300         9.93100        22.75500
C           9.55900         9.41800        25.94000
O           9.27600        10.77700        26.30100
H           9.32000        10.84000        27.29800
C           8.80600         5.33600        25.03100
O           8.61400         4.67300        23.77300
H           8.59700         3.68000        23.89600
C           8.52100         6.80700        25.29100
O           9.07100         7.13400        26.57600
C           9.04000         8.49500        27.03000
O           9.98500         8.62600        28.10300
C           9.35800         8.31500        29.35500
C           9.64500         6.92500        29.89900
O           9.27200         5.84400        29.03300
H           9.59200         6.00200        28.09900
C           8.74500         6.72900        31.10800
O           8.71800         5.38800        31.61800
H           8.54300         5.31000        32.59900
C           9.42400        10.74000        30.13400
O           9.83200        11.58000        29.04400
H           9.77300        12.53200        29.34200
C           9.85900         9.30700        30.39200
O           9.27500         9.02800        31.67300
C           9.38500         7.66800        32.11800
O           8.52900         7.84200        33.25600
C           9.25100         7.88700        34.49600
C           8.93800         9.29600        34.97300
O           9.05300        10.39700        34.06000
H           9.02400        10.01700        33.13600
C           9.67800         9.55500        36.27500
O           9.28800        10.83100        36.80500
H           9.70200        10.82500        37.71600
C           8.71800         5.48400        35.28800
O           8.30900         4.72300        34.14200
H           8.57000         3.75800        34.13100
C           8.74100         6.97200        35.59600
O           9.52100         7.25100        36.76800
C           9.25700         8.54500        37.32900
O          10.17700         8.65800        38.42500
C           9.49200         8.33300        39.64300
C           9.62600         6.88300        40.07700
O           9.12400         6.00000        39.06300
H           9.52100         6.36400        38.22000
C           8.99600         6.73500        -0.53400
O           9.56600         5.51200        -0.04500
H           9.25200         5.28200         0.87600
C           9.63700        10.76500        40.32100
O          10.15300        11.39200        39.13800
H          10.13900        12.38000        39.29000
C           9.92900         9.33000        -1.27900
O           9.28600         9.10000        -0.01800
C           9.50500         7.76500         0.46100
O           8.70100         7.86600         1.64600
C           4.46100         3.79500         0.52200
C           4.46800         2.39700         1.11900
O           3.72700         1.51700         0.26100
H           4.19600         1.48800        -0.62200
C           3.86300         2.28700         2.50900
O           4.08200         0.94300         2.96400
H           3.99200         0.28700         2.21500
C           5.31600         6.09000         1.22500
O           4.18700         6.81000         0.71000
H           4.59900         7.44600         0.05700
C           5.04400         4.65100         1.63400
O           4.19700         4.70100         2.79200
C           4.48500         3.40300         3.33200
O           3.74500         3.48100         4.55900
C           4.50500         3.57500         5.77300
C           4.48100         4.94800         6.42500
O           4.79600         6.02300         5.52800
H           4.22200         5.86600         4.72500
C           5.25400         5.01700         7.73200
O           5.23500         6.27000         8.43100
H           5.67400         7.05700         7.99600
C           3.68600         1.15100         6.36900
O           4.75300         0.23700         6.07800
H           5.26800         0.51300         5.26700
C           3.89800         2.60200         6.77100
O           4.65300         2.69300         7.98800
C           4.59100         3.97800         8.62200
O           5.28100         3.70000         9.84900
C           4.37600         3.62400        10.95900
C           4.54900         2.20400        11.47100
O           4.01800         1.32300        10.47000
H           4.40600         1.69500         9.62700
C           3.98400         1.92700        12.85500
O           4.26900         0.58400        13.27300
H           3.82400        -0.05700        12.64800
C           5.20600         5.90000        11.58500
O           4.02200         6.69600        11.73900
H           4.30500         7.34200        11.03100
C           5.00800         4.46800        12.05400
O           4.37600         4.31800        13.33400
C           4.52300         2.97400        13.81500
O           3.66100         2.98200        14.96200
C           4.33800         3.19000        16.21000
C           4.11200         4.60700        16.71300
O           4.56300         5.60700        15.78800
H           4.35900         5.18500        14.90500
C           4.70000         4.90100        18.08300
O           4.18700         6.15700        18.55000
H           4.42300         6.84600        17.86400
C           3.78700         0.75400        16.86900
O           5.00500         0.02000        17.06200
H           4.91300        -0.72000        16.39700
C           3.85600         2.21700        17.27400
O           4.41800         2.46600        18.57100
C           4.23300         3.81100        19.03500
O           4.91500         3.98700        20.28500
C           4.15500         3.87000        21.49600
C           4.21300         2.47000        22.08600
O           4.01700         1.34500        21.21700
H           4.39900         1.65600        20.34600
C           3.48700         2.27000        23.40600
O           3.99000         1.08500        24.04000
H           3.86200         0.28500        23.45400
C           5.03800         6.01100        22.11400
O           4.17000         7.14600        21.98900
H           4.55800         7.94500        21.52800
C           4.58900         4.68400        22.70400
O           3.70600         4.59200        23.83100
C           4.00500         3.30500        24.39100
O           3.20100         3.49000        25.56500
C           3.99900         3.57600        26.75500
C           4.14300         5.00500        27.25300
O           4.80200         5.72900        26.20400
H           4.34700         5.44800        25.35900
C           4.87600         5.16800        28.57500
O           4.83500         6.55400        28.94300
H           5.29100         7.11100        28.25000
C           3.37300         1.20100        27.42700
O           4.65000         0.55500        27.31200
H           4.61300        -0.24400        26.71200
C           3.51000         2.65200        27.85800
O           4.12600         2.83100        29.14200
C           4.15900         4.21600        29.51700
O           4.81300         4.16700        30.79400
C           4.23700         3.83300        32.06500
C           4.47800         2.40300        32.52000
O           3.81300         1.43800        31.69100
H           4.14500         1.52500        30.75200
C           3.95200         2.10300        33.91500
O           4.43200         0.80200        34.28500
H           3.97000         0.10600        33.73600
C           5.02700         6.10400        32.65000
O           3.93000         6.95900        32.30000
H           4.34200         7.70000        31.76900
C           4.95300         4.66000        33.12000
O           4.30500         4.53200        34.39400
C           4.53900         3.18000        34.81200
O           3.80300         3.10700        36.04200
C           4.49800         3.38100        37.26700
C           4.46800         4.77000        37.88400
O           4.84000         5.80500        36.96100
H           4.45300         5.53900        36.07800
C           5.31400         4.85900        39.14400
O           5.20800         6.20800        39.62300
H           5.51700         6.76800        38.85500
C           3.62300         1.10300        37.80100
O           4.66800         0.14800        38.03600
H           4.42300        -0.80300        37.84700
C           3.85700         2.50800        38.33300
O           4.62300         2.51600        39.54700
C           4.65200         3.85200        40.07000
O           5.29400         3.95500        41.34900
C           9.96200        15.99700         3.15500
C           9.78600        17.44300         3.58800
O          10.35900        18.38100         2.66600
H          10.06200        18.16200         1.73700
C          10.21800        17.71700         5.01900
O           9.74300        18.95800         5.56000
H          10.04300        19.01400         6.51200
C           9.88300        13.61300         3.86300
O           9.45100        13.00700         2.63600
H           9.70200        12.03900         2.62800
C           9.48900        15.03400         4.23200
O           9.96300        15.27900         5.56400
C           9.79200        16.63600         6.00000
O          10.62900        16.58300         7.16400
C          10.07300        16.31000         8.45800
C          10.57400        14.93600         8.87300
O          10.55700        13.88300         7.89900
H          10.61600        14.36100         7.02200
C          10.03900        14.58000        10.25000
O          10.27800        13.26000        10.76000
H           9.83700        13.28600        11.65700
C          10.55500        18.72500         9.18300
O          10.89400        19.40600         7.96600
H          10.94900        20.39700         8.09300
C          10.68000        17.24200         9.49300
O          10.26200        16.91000        10.82500
C          10.51300        15.57800        11.29500
O           9.63100        15.41700        12.41500
C          10.19700        15.78500        13.68200
C          10.04400        17.26800        13.98000
O          10.65400        18.10800        12.98900
H          10.50400        17.66300        12.10500
C          10.77800        17.62000        15.26400
O          10.75200        18.93200        15.84500
H          11.07000        18.88800        16.79200
C           9.96500        13.52300        14.58800
O           9.37700        12.84700        13.46700
H           9.61500        11.88100        13.36900
C           9.72700        14.99300        14.89000
O          10.63900        15.31000        15.95100
C          10.42300        16.66000        16.38800
O          11.24200        16.67000        17.56600
C          10.61100        16.33300        18.81000
C          10.98400        14.93700        19.28100
O          10.88700        13.93200        18.26100
H          10.91200        14.30200        17.33200
C          10.24500        14.68900        20.58600
O          10.39400        13.32500        21.00700
H          10.17900        13.20300        21.97600
C          10.91000        18.75800        19.81700
O          11.28500        19.39000        18.58400
H          11.30200        20.38300        18.70200
C          11.20000        17.26700        19.85500
O          10.61200        17.05400        21.14600
C          10.63300        15.70800        21.64400
O           9.76100        15.51000        22.76600
C          10.41800        15.90600        23.97900
C          10.08500        17.31500        24.44200
O          10.98100        18.06100        23.60500
H          11.07900        17.53500        22.76000
C          10.62400        17.83700        25.76400
O          10.27000        19.14200        26.24300
H          10.80900        19.17100        27.08500
C          10.53900        13.68400        24.85200
O          10.02400        12.81900        23.82900
H           9.89900        11.84300        24.00500
C           9.96700        15.05800        25.15800
O          10.57200        15.48300        26.38700
C          10.18100        16.80500        26.78800
O          10.90100        16.84000        28.02900
C          10.14700        16.47900        29.19500
C          10.50400        15.09900        29.72300
O          10.03900        14.17200        28.73200
H          10.33700        14.51400        27.84100
C          10.03000        14.73300        31.12000
O          10.55500        13.56400        31.76600
H          10.20500        13.28200        32.66000
C           9.90200        18.90600        29.84900
O          10.72100        19.50300        28.83300
H          10.64600        20.48900        28.97900
C          10.35300        17.52000        30.28300
O           9.77300        17.12900        31.53600
C          10.31000        15.90200        32.05100
O           9.49300        15.78500        33.22500
C          10.10700        15.97800        34.50700
C           9.69400        17.34400        35.03100
O           9.66400        18.34200        34.00000
H           9.62700        17.84900        33.13100
C          10.35900        17.52100        36.38600
O          10.33000        18.86200        36.89300
H          10.44500        18.93800        37.88400
C           9.76300        13.62200        35.37000
O           9.42600        13.06800        34.09000
H           9.53200        12.07400        34.11600
C           9.44800        15.09700        35.55700
O           9.72500        15.32800        36.94600
C           9.77000        16.65500        37.48800
O          10.65000        16.52500        38.61500
C           9.97600        16.39300        39.87500
C          10.08500        14.94900        40.33700
O           9.94100        13.95000        39.31700
H          10.20500        14.33800        38.43400
C           9.49700        14.73200        -0.26500
O           9.64200        13.33600         0.03500
H           9.45900        13.25600         1.01500
C          10.42100        18.70100        40.65000
O          10.80900        19.34600        39.42800
H          10.44900        20.27800        39.38900
C          10.73300        17.23800        -1.09800
O          10.17200        17.00900         0.20300
C          10.20400        15.66500         0.70500
O           9.38000        15.69100         1.88000
C           5.52900        11.87500         0.75500
C           5.54000        10.44500         1.27200
O           5.22100         9.47300         0.26600
H           5.47600         9.81100        -0.64000
C           4.62900        10.32800         2.48400
O           4.47400         8.98400         2.96400
H           4.28700         8.43000         2.15200
C           5.99300        14.29900         1.47900
O           4.65700        14.82100         1.44600
H           4.67000        15.78900         1.69500
C           5.90200        12.83300         1.87400
O           5.08600        12.55800         3.02100
C           5.20400        11.23400         3.56000
O           4.46300        11.37600         4.78100
C           5.18300        11.34200         6.02100
C           5.37300        12.73100         6.60800
O           6.00800        13.53100         5.60100
H           5.33000        13.67000         4.88000
C           6.15600        12.75800         7.91100
O           6.74800        13.98200         8.37000
H           7.37500        14.36300         7.69100
C           4.40000         9.11100         6.69900
O           5.58400         8.38400         6.34200
H           5.40300         7.46100         6.00300
C           4.45100        10.57400         7.10900
O           5.17900        10.65900         8.34200
C           5.27700        11.98500         8.88200
O           6.00900        11.69200        10.08100
C           5.33700        11.58000        11.34400
C           5.39500        10.14300        11.83700
O           4.85000         9.12300        10.98800
H           5.11100         9.33700        10.04600
C           4.78500         9.96400        13.21800
O           4.68500         8.63200        13.74300
H           4.17600         8.11000        13.05900
C           6.36300        13.88700        11.76400
O           5.44700        14.99000        11.82400
H           5.69900        15.74400        11.21700
C           6.14400        12.47200        12.27300
O           5.53400        12.33500        13.56500
C           5.40300        11.01900        14.12200
O           4.65900        11.24400        15.32700
C           5.52800        11.31900        16.46700
C           5.79800        12.70800        17.02200
O           6.53800        13.39000        15.99900
H           6.02500        13.15900        15.17300
C           6.61500        12.76300        18.30300
O           6.60800        14.15500        18.65000
H           7.06200        14.58200        17.86800
C           4.48100         9.24900        17.34100
O           5.43700         8.19900        17.13600
H           5.28000         7.56100        16.38100
C           4.82900        10.69300        17.66200
O           5.52500        10.68700        18.91600
C           5.84400        12.00900        19.37400
O           6.48400        11.68000        20.61600
C           5.64600        11.85700        21.76700
C           5.50900        10.45700        22.34400
O           4.78200         9.69100        21.37200
H           5.09900        10.02900        20.48600
C           4.87700        10.39600        23.72500
O           5.15900         9.15500        24.38700
H           4.88000         8.44200        23.74300
C           6.46600        14.15100        22.34400
O           5.32900        14.98900        22.08600
H           5.51300        15.88000        21.67100
C           6.37200        12.70400        22.79900
O           5.52400        12.75900        23.95700
C           5.44900        11.48600        24.61600
O           4.63500        11.65500        25.78500
C           5.25200        11.71200        27.07900
C           5.56400        13.08600        27.64800
O           6.05400        14.07400        26.72900
H           5.99400        13.75700        25.78200
C           6.17800        13.19000        29.03500
O           5.91800        14.41000        29.74400
H           6.36600        15.13300        29.21900
C           4.42200         9.40500        27.61100
O           5.43600         8.64500        26.93800
H           5.32800         8.74300        25.94900
C           4.67900        10.80200        28.15300
O           5.67400        10.79400        29.18800
C           5.63300        12.05000        29.88000
O           6.25600        11.86700        31.16000
C           5.29500        11.80300        32.22500
C           5.43200        10.40100        32.79500
O           5.13000         9.38100        31.83200
H           5.43700         9.75100        30.95600
C           4.68400        10.09100        34.08200
O           4.82700         8.77200        34.62900
H           4.35200         8.12300        34.03500
C           6.15000        14.07000        32.85800
O           5.19400        15.03200        32.38900
H           5.49600        15.39600        31.50700
C           5.79700        12.68000        33.36000
O           4.85400        12.50200        34.42700
C           5.13000        11.21600        35.00200
O           4.56700        11.15400        36.32100
C           5.45100        11.34600        37.43500
C           5.32300        12.76400        37.96900
O           5.47900        13.66900        36.86700
H           4.90700        13.53800        36.05700
C           6.06300        13.12400        39.24700
O           5.82700        14.47700        39.66500
H           6.21900        15.11400        39.00200
C           4.76400         9.00200        38.34400
O           5.84200         8.14900        37.93200
H           5.67900         7.40800        37.28000
C           4.94500        10.49200        38.58600
O           5.67300        10.83100        39.77500
C           5.46000        12.16500        40.26000
O           6.19600        12.09500        41.48900
C          10.87300        24.12800         2.97000
C          10.41600        25.47700         3.50300
O          10.68000        26.46400         2.49500
H          10.51300        25.96200         1.64600
C          10.82700        25.88400         4.90800
O          10.20500        27.08600         5.38700
H          10.55500        27.21600         6.31500
C          10.47300        21.67300         3.82700
O           9.96900        20.95000         2.69400
H          10.20800        19.98900         2.83400
C          10.48100        23.17100         4.08400
O          11.08800        23.47400         5.34900
C          10.50400        24.70200         5.80800
O          11.38600        24.83400         6.93200
C          10.90200        24.52200         8.24700
C          11.42100        23.15700         8.67100
O          10.91900        22.19100         7.73600
H          11.33600        22.43100         6.86000
C          10.77300        22.75000         9.98500
O          11.26800        21.51800        10.52900
H          10.89100        21.28100        11.42500
C          10.89500        26.86400         9.04800
O          11.22300        27.57200         7.84300
H          11.16800        28.56700         7.92500
C          11.39900        25.45900         9.33500
O          10.76800        25.09300        10.57200
C          11.14900        23.78800        11.03000
O          10.53900        23.74200        12.32800
C          11.17400        24.04400        13.57900
C          10.65700        25.38300        14.08100
O          10.60000        26.47900        13.15700
H          10.61100        26.07900        12.24100
C          11.23700        25.73900        15.44100
O          11.06300        27.06800        15.95200
H          11.38900        27.12000        16.89700
C          11.20700        21.49800        14.31000
O          10.68200        20.70900        13.23300
H          10.66200        19.74700        13.50700
C          10.85500        22.95100        14.58600
O          11.43200        23.30400        15.85200
C          10.93500        24.55600        16.34600
O          11.76900        24.74300        17.49900
C          11.12000        24.52700        18.76100
C          11.66600        23.17200        19.18200
O          11.36700        22.04600        18.34600
H          11.58900        22.35800        17.42200
C          11.14500        22.86700        20.57700
O          11.90000        21.74800        21.06400
H          11.44500        21.42700        21.89600
C          11.27000        27.07400        19.37100
O          11.92200        27.84400        18.35000
H          11.70100        28.81900        18.34400
C          11.47100        25.61800        19.75800
O          10.76700        25.28200        20.96300
C          11.35700        24.07700        21.47200
O          10.57600        23.86900        22.65800
C          11.32600        24.21600        23.83100
C          11.01000        25.60200        24.37100
O          11.49000        26.58600        23.44400
H          11.41500        26.27800        22.49600
C          11.49600        25.80500        25.79600
O          10.79700        26.90700        26.39500
H          11.20100        26.96700        27.30800
C          11.38500        21.72600        24.52800
O          10.67500        20.83900        23.65000
H          10.89900        19.91400        23.95700
C          11.10000        23.16900        24.90900
O          11.75100        23.46200        26.15400
C          11.13600        24.63800        26.70000
O          11.85000        24.75900        27.93900
C          11.11400        24.53200        29.15000
C          11.36200        23.14500        29.72200
O          11.22200        22.14800        28.70000
H          11.75100        22.48100        27.91900
C          10.60700        22.82500        31.00200
O          10.74600        21.44700        31.37800
H          10.46600        21.25900        32.32000
C          11.30300        26.89100        30.05100
O          11.95000        27.59100        28.97900
H          11.71300        28.56200        29.01500
C          11.41600        25.40600        30.35600
O          10.65500        25.19200        31.55400
C          10.98800        23.87900        32.02800
O          10.19500        23.73500        33.21600
C          10.85700        23.90000        34.47800
C          10.65700        25.32900        34.95400
O          11.33000        26.23900        34.07200
H          11.17300        25.89000        33.14800
C          11.19200        25.69500        36.32900
O          10.66500        26.88200        36.93900
H          11.04100        27.13100        37.83200
C          10.43900        21.53600        35.30000
O          10.15100        20.88600        34.05300
H          10.11600        19.90300        34.23100
C          10.27800        23.02200        35.57600
O          10.91200        23.27600        36.83700
C          10.69600        24.62300        37.28600
O          11.48600        24.76200        38.47500
C          10.86500        24.45800        39.73200
C          11.01200        23.03900        40.25800
O          10.47500        22.08800        39.32600
H          10.71200        22.28100        38.37400
C          10.33300        22.84500        -0.38100
O          10.58600        21.49000         0.01500
H          10.16100        21.28200         0.89600
C          11.08900        26.81200        40.57200
O          11.23300        27.56200        39.35700
H          11.21600        28.54000        39.56800
C          11.39600        25.35400        -1.14500
O          10.80000        25.15800         0.14500
C          11.00000        23.80800         0.58700
O          10.17000        23.81900         1.75800
C           5.73900        19.72700         0.61300
C           5.30800        18.38200         1.17500
O           4.35300        17.77900         0.29000
H           4.74800        17.59600        -0.61100
C           4.79400        18.46400         2.60300
O           4.36900        17.18400         3.09300
H           3.42100        17.01600         2.82400
C           7.07100        21.83500         1.12300
O           6.06400        22.85600         1.07100
H           6.19900        23.19900         0.14200
C           6.60200        20.47600         1.61500
O           6.06700        20.50600         2.94600
C           5.85300        19.17300         3.43300
O           5.41500        19.30200         4.79300
C           6.39300        19.36900         5.84100