# freq=raman b3lyp/6-31+g(2d,p) geom=connectivity

550 9000/9000.com

0 1
C          10.66200         7.64000         2.91200
C          10.95000         9.02100         3.47900
O          11.75600         9.78500         2.57000
H          11.22000         9.92000         1.73700
C          11.45100         8.84300         4.90300
O          11.76400        10.19800         5.25800
H          11.81200        10.90800         4.55500
C           9.00300         5.78900         3.19000
O           9.66200         4.80900         2.37600
H           9.93800         5.25900         1.52600
C           9.54600         7.08100         3.77900
O          10.04800         6.80400         5.09400
C          10.58100         7.95000         5.77300
O          11.41300         7.49000         6.84800
C          10.69200         7.67900         8.07400
C          10.26200         6.33100         8.63100
O           9.53400         5.47700         7.73700
H           9.47200         5.85500         6.81300
C           9.45700         6.38500         9.92000
O           9.58000         5.15000        10.64000
H           9.58400         4.42100         9.95500
C          12.24500         9.67000         9.10800
O          11.45400        10.83200         8.81900
H          11.56100        10.90400         7.82700
C          11.49300         8.35000         9.17800
O          10.66300         8.49500        10.34000
C          10.23800         7.24400        10.90000
O           9.50300         7.57000        12.08800
C          10.19600         7.46800        13.34000
C          10.54400         8.83600        13.90400
O          11.32900         9.54600        12.93500
H          10.94600         9.36200        12.03000
C          11.25100         8.77400        15.24900
O          11.48000        10.04500        15.87400
H          11.81400        10.52100        15.06000
C           8.51400         5.57500        14.11200
O           9.25300         4.61600        13.34200
H           9.25400         4.86200        12.37300
C           9.30100         6.84400        14.39900
O          10.19200         6.53600        15.48100
C          10.39100         7.82800        16.07100
O          11.01000         7.43000        17.30400
C          10.13500         7.69200        18.41100
C           9.61000         6.34400        18.87700
O           8.83300         5.65100        17.88900
H           9.34800         5.37600        17.07800
C           8.92700         6.35200        20.23500
O           8.44900         5.08800        20.71500
H           7.84400         4.59400        20.09000
C          11.74300         9.57000        19.04900
O          11.18800        10.85300        18.72400
H          11.30500        10.80900        17.73200
C          10.94200         8.36300        19.51000
O          10.22000         8.36000        20.75000
C           9.85900         7.05000        21.21200
O           9.14100         7.24500        22.44000
C           9.81100         7.17800        23.70700
C          10.30400         8.53400        24.18700
O          11.45600         8.73000        23.35400
H          11.21600         8.74100        22.38400
C          10.91600         8.57300        25.57800
O          10.74000         9.86400        26.17800
H          11.02900        10.61900        25.58900
C           8.63400         5.04900        24.23100
O           7.87800         4.07100        24.96000
H           6.90100         4.28100        24.91500
C           9.04100         6.41100        24.76900
O           9.93200         6.36100        25.89300
C          10.22200         7.61400        26.53100
O          10.85400         7.32600        27.78700
C          10.08400         7.29700        28.99800
C           9.95400         5.83900        29.40600
O           9.03200         5.14200        28.55500
H           9.35400         5.38100        27.63900
C           9.56200         5.71200        30.86900
O          10.21300         4.50700        31.29600
H           9.92200         3.80300        30.64700
C          11.57600         9.48300        29.70300
O          10.74300        10.65000        29.76100
H           9.99100        10.69900        29.10300
C          11.05100         8.06700        29.88200
O          10.43300         8.08100        31.17600
C          10.25400         6.76500        31.71900
O           9.53100         6.82200        32.95700
C          10.42200         6.76100        34.08000
C          10.75700         8.13800        34.62900
O          11.18100         9.09100        33.64300
H          10.66200         8.93800        32.80200
C          11.61700         8.13500        35.88200
O          11.68400         9.39400        36.56700
H          11.78200        10.21200        36.00100
C           9.36400         4.67400        34.79400
O          10.36800         3.79400        34.26800
H          10.03900         3.61900        33.34000
C           9.71000         6.08500        35.24000
O          10.57100         6.05200        36.38800
C          11.04400         7.26600        36.99000
O          11.88500         7.09000        38.13900
C          11.02900         7.16500        39.28900
C          10.89400         5.73800        39.79500
O          10.18900         4.85700        38.90800
H          10.66200         4.77600        38.03000
C          10.28700         5.65200        41.18500
O          10.31300         4.26900        41.56500
H          10.00900         3.63800        40.85200
C          12.11300         9.42200        40.09900
O          12.95800         9.97000        41.12200
H          13.93700         9.78500        41.04400
C          11.53100         9.13900        -1.47000
O          10.86800         9.11400        -0.19700
C          10.76400         7.77700         0.31400
O          10.12800         7.85500         1.59800
C           5.15700         2.79900        41.52000
C           4.61400         1.46000        41.99200
O           3.88300         0.70300        41.01600
H           4.43500         0.44300        40.22400
C           3.71000         2.64400         1.61000
O           3.14200         1.44000         2.14700
H           2.99900         0.73800         1.45000
C           6.31400         6.03600         0.58500
O           5.28600         6.99800         0.30600
H           5.16600         6.86600        -0.67800
C           5.66500         4.68200         0.81900
O           5.05600         4.63200         2.11700
C           4.63000         3.34700         2.59400
O           4.08400         3.57900         3.90100
C           4.93100         3.50800         5.05700
C           5.18600         4.94400         5.48500
O           5.98200         5.62700         4.50500
H           5.60600         5.21300         3.67600
C           5.93900         5.00700         6.80400
O           5.74300         6.38500         7.15100
H           6.12800         6.96100         6.43000
C           4.08100         1.29400         5.67500
O           3.62100         0.49100         6.77200
H           3.27600        -0.38500         6.43500
C           4.27000         2.71700         6.17400
O           4.90700         2.77300         7.45900
C           5.16800         4.14500         7.79100
O           5.74300         4.19400         9.10500
C           4.87400         3.86600        10.19800
C           4.83800         2.46200        10.77800
O           4.59300         1.42300         9.82000
H           5.01200         1.61900         8.93300
C           3.78900         2.28200        11.86300
O           3.71200         0.91800        12.30300
H           3.64400         0.36400        11.47300
C           5.16600         6.10100        11.10600
O           6.06900         6.85700        11.92600
H           5.98600         7.78000        11.55000
C           5.29200         4.62500        11.44700
O           4.44800         4.49800        12.60000
C           4.21800         3.15000        13.03500
O           3.46300         3.07900        14.25300
C           4.33500         3.28000        15.37500
C           4.60800         4.67800        15.90400
O           5.31800         5.43300        14.91100
H           4.93500         5.08100        14.05700
C           5.26300         4.97300        17.24300
O           5.57600         6.27300        17.76600
H           6.43900         6.51700        17.32500
C           3.64200         0.98300        16.39400
O           4.74200         0.06400        16.31700
H           4.32800        -0.84500        16.32700
C           3.74500         2.49300        16.53400
O           4.28100         2.76200        17.83800
C           4.53600         4.11000        18.26100
O           5.30800         3.93600        19.45800
C           4.72500         3.69900        20.74800
C           4.60400         2.22300        21.09000
O           3.81400         1.50900        20.12800
H           4.23100         1.77200        19.25800
C           3.81200         1.98000        22.36400
O           3.80900         0.57200        22.64400
H           3.52600         0.22800        21.74800
C           5.36200         5.92300        21.64900
O           4.49600         6.55700        20.69600
H           4.88100         6.33400        19.80000
C           5.31900         4.43200        21.94000
O           4.45700         4.15700        23.05400
C           4.47200         2.78500        23.47200
O           3.75500         2.81000        24.71500
C           4.36800         3.12100        25.97500
C           4.52200         4.52200        26.54400
O           5.18200         5.30600        25.54000
H           5.19700         6.28400        25.74800
C           5.33600         4.57400        27.82600
O           5.23300         5.83800        28.49700
H           6.05800         6.36600        28.29800
C          10.27600        33.40500        26.58400
O           9.80500        32.28200        27.34400
H          10.03600        31.37000        27.00500
C           3.82400         2.28600        27.12200
O           4.65400         2.29100        28.29400
C           4.66000         3.63100        28.80700
O           5.33900         3.42800        30.05600
C           4.40400         3.40200        31.14400
C           4.01300         1.97200        31.48000
O           2.81500         1.56600        30.80200
H           2.86900         1.65500        29.80700
C           3.43300         1.84700        32.87900
O           2.69600         0.71600        33.36700
H           1.81800         1.15500        33.55700
C           5.40800         5.60100        32.19400
O           6.11300         6.05700        33.35800
H           6.23100         7.04600        33.27200
C           5.01600         4.13800        32.32400
O           4.26200         3.87300        33.51600
C           4.30600         2.50200        33.93700
O           3.93400         2.57200        35.32100
C           4.84000         2.57100        36.43400
C           5.11700         4.00200        36.86500
O           6.01200         4.77400        36.05200
H           5.78500         4.72600        35.08000
C           5.90700         3.98500        38.16400
O           6.18400         5.20100        38.87200
H           7.15400         5.44500        38.89200
C          10.74100        32.68800        37.12800
O          10.50100        31.57000        37.99500
H          10.60900        30.79400        37.37400
C           4.34700         1.61800        37.51000
O           5.18400         1.69400        38.67200
C           5.30600         3.03000        39.18200
O           6.05000         2.93400        40.40500
C          13.29300        15.88100         2.57600
C          13.45300        17.26700         3.17900
O          14.04600        18.37700         2.48800
H          13.41600        18.50700         1.72200
C          14.01600        17.29800         4.59000
O          14.25600        18.53200         5.28100
H          14.60800        19.13800         4.56700
C          12.47200        13.47300         3.25500
O          11.62600        12.69100         4.11000
H          10.65900        12.89100         3.95100
C          12.59100        14.95800         3.55800
O          13.20400        15.06600         4.85100
C          13.12500        16.38300         5.41400
O          13.76700        16.15000         6.67700
C          12.81500        16.05400         7.74600
C          12.24500        14.70200         8.14400
O          11.21600        14.37900         7.19700
H          11.67700        14.25800         6.31700
C          11.76200        14.42900         9.55900
O          11.95100        13.05200         9.91400
H          11.35900        12.49400         9.33200
C          14.00000        18.18200         8.48100
O          14.71000        18.93200         9.47800
H          14.65600        19.90100         9.23800
C          13.54000        16.78500         8.86400
O          12.74200        16.66300        10.05100
C          12.65700        15.28500        10.44000
O          12.27100        15.30800        11.82200
C          13.24700        14.99200        12.82500
C          13.80500        16.32200        13.30500
O          14.50200        17.15500        12.36700
H          14.12500        17.04800        11.44700
C          14.62500        16.12600        14.56900
O          15.61500        17.00900        15.11700
H          16.53600        16.99900        14.72800
C          11.98400        12.86200        13.43700
O          11.05400        12.34500        14.40000
H          10.27100        12.96100        14.48100
C          12.33900        14.28900        13.82200
O          12.95000        14.45800        15.10900
C          13.52600        15.70300        15.53000
O          13.90500        15.39300        16.87900
C          13.11700        15.45200        18.07700
C          12.78500        14.06500        18.60300
O          11.92500        13.50700        17.59900
H          12.44800        13.40600        16.75200
C          12.13300        14.03600        19.97500
O          12.02200        12.65900        20.36400
H          11.54300        12.17700        19.63100
C          13.87400        17.64800        18.89200
O          14.34400        18.76100        19.66700
H          14.38200        19.63400        19.18000
C          13.91900        16.15300        19.16100
O          13.32700        16.03700        20.46300
C          13.12000        14.69400        20.92600
O          12.45900        15.12100        22.12600
C          13.13600        15.15200        23.39100
C          13.28700        16.59600        23.84200
O          14.04900        17.42400        22.95100
H          13.60300        17.25100        22.07300
C          13.98100        16.57000        25.19400
O          14.21100        17.95600        25.48700
H          14.46600        18.28600        24.57800
C          11.97800        12.94800        23.91200
O          11.02000        12.24900        24.71900
H          10.09200        12.61900        24.75900
C          12.25800        14.37500        24.35700
O          13.08700        14.35600        25.52700
C          13.28100        15.62900        26.16100
O          14.04800        15.27900        27.32200
C          13.34300        15.52400        28.54800
C          12.94700        14.15400        29.07500
O          12.40200        13.28600        28.07000
H          12.80600        13.62600        27.22000
C          12.16000        14.30500        30.36600
O          12.06100        12.99800        30.95100
H          11.61400        12.40200        30.28400
C          14.14000        17.83400        29.09300
O          14.65600        18.76500        30.05500
H          14.74700        19.64000        29.57900
C          14.12500        16.37900        29.53200
O          13.37600        16.39500        30.75600
C          13.04800        15.10900        31.30200
O          12.35700        15.39200        32.52700
C          13.07600        15.10300        33.73500
C          13.85500        16.30800        34.23700
O          14.92200        16.59700        33.32200
H          14.62100        16.81400        32.39400
C          14.49600        16.05900        35.59300
O          15.08400        17.34900        35.81800
H          15.63800        17.49900        34.99900
C          12.19600        13.02500        34.71500
O          11.83100        12.15900        35.80000
H          10.83200        12.11500        35.80200
C          12.29500        14.53000        34.90600
O          12.88800        14.59000        36.21100
C          13.46900        15.81300        36.68600
O          14.14600        15.57100        37.92800
C          13.43800        15.57700        39.17600
C          13.24300        14.17200        39.72300
O          12.44500        13.49400        38.74200
H          12.73700        13.68700        37.80600
C          12.91500        13.92700        41.18600
O          13.70700        12.74700        41.38800
H          13.28300        11.99100        40.88900
C          14.31600        17.73300        39.63700
O          15.15500        18.68600        40.30600
H          14.91000        19.57200        39.91200
C          14.20400        16.34300        40.24300
O          13.67800        16.31400        41.57800
C          13.68200        14.94700        42.01300
O          12.86000        15.04400        43.18500
C           7.61200        10.74200        41.35600
C           7.15600         9.32700        41.67500
O           6.05500         8.96400        40.82900
H           6.51600         8.85200        39.94900
C           6.45700        10.38700         1.35600
O           6.27000         9.07900         1.91400
H           5.31600         8.91400         1.66300
C           8.56600        14.09000         0.08800
O           9.54700        14.72100         0.92500
H           9.45900        15.65400         0.57800
C           8.19500        12.69000         0.54800
O           7.67900        12.47600         1.87000
C           7.42200        11.12200         2.27200
O           6.80900        11.41000         3.53700
C           7.64100        11.04400         4.64700
C           8.01900        12.40600         5.20800
O           8.85400        13.12100         4.28700
H           8.41700        13.24000         3.39600
C           8.48700        12.42600         6.65400
O           8.81300        13.66800         7.29600
H           9.80400        13.71000         7.17200
C           5.89400         9.29800         5.25300
O           6.77800         8.16800         5.21400
H           6.38600         7.45200         4.63700
C           6.65700        10.53800         5.68900
O           7.25000        10.42000         6.99100
C           7.50300        11.71100         7.56500
O           8.19400        11.45600         8.79600
C           7.41100        11.73700         9.96600
C           6.71600        10.50200        10.51600
O           5.98800         9.58600         9.68600
H           6.64200         9.58500         8.92900
C           5.94700        10.71900        11.80900
O           5.22000         9.69800        12.50900
H           4.22300         9.76000        12.47800
C           8.24900        13.93600        10.41200
O           8.25500        15.15100        11.17700
H           8.46300        16.00000        10.69100
C           8.05100        12.57500        11.06000
O           7.19000        12.65300        12.20500
C           6.99100        11.33200        12.72800
O           6.39700        11.50500        14.02300
C           7.21600        11.22200        15.16700
C           7.81400        12.50400        15.72200
O           8.32100        13.44800        14.76700
H           7.65000        13.44300        14.02600
C           8.64000        12.23700        16.96900
O           9.15200        13.47600        17.48100
H          10.13400        13.59000        17.32700
C           5.74200         9.27400        15.88100
O           6.48800         8.06900        15.65600
H           5.96200         7.45500        15.06800
C           6.39200        10.59000        16.27700
O           7.20500        10.37200        17.43900
C           7.61200        11.65900        17.92700
O           8.10900        11.35600        19.23900
C           7.32700        11.58100        20.42100
C           6.87000        10.27800        21.05700
O           6.18700         9.43900        20.11400
H           6.47100         9.41500        19.15500
C           6.34200        10.40200        22.47700
O           5.94700         9.17300        23.10500
H           5.06100         9.04800        22.66000
C           8.71600        13.60100        21.03400
O           7.86100        14.75200        21.09400
H           8.35600        15.58200        20.83600
C           8.09000        12.30300        21.52000
O           7.51600        12.47700        22.82300
C           7.30400        11.16800        23.37100
O           6.58200        11.71200        24.48600
C           7.27300        11.40800        25.70600
C           7.92700        12.69300        26.18700
O           8.78500        13.30000        25.20900
H           8.08500        13.60900        24.56600
C           8.52100        12.34800        27.54200
O           9.00000        13.59200        28.07200
H           9.59100        13.98700        27.36900
C           5.50000         9.62100        26.18800
O           5.89400         8.29200        25.82000
H           5.91700         8.33500        24.82100
C           6.38300        10.73100        26.73600
O           7.01200        10.50800        28.00600
C           7.45100        11.79400        28.46900
O           8.01200        11.18000        29.63900
C           7.35600        11.27600        30.91200
C           6.60900        10.01500        31.31600
O           5.46300         9.91900        30.45800
H           5.87500         9.89400        29.54700
C           6.21700         9.90600        32.78100
O           5.87700         8.55700        33.13000
H           4.87800         8.58500        33.16400
C           8.92600        13.10600        31.66000
O           8.04400        14.21100        31.41000
H           8.36600        15.05200        30.97500
C           8.36800        11.72400        31.95400
O           7.76200        11.72900        33.25500
C           7.36400        10.40700        33.64400
O           6.81300        10.49100        34.96700
C           7.61200        10.34800        36.15000
C           8.21900        11.68100        36.55700
O           9.12100        12.23300        35.58800
H           8.68700        12.20200        34.68700
C           9.05200        11.48300        37.81300
O           9.80400        12.58300        38.34400
H          10.72500        12.19300        38.36900
C           6.25200         8.31600        37.20900
O           5.94500         7.68200        38.45900
H           5.52900         6.77400        38.41300
C           6.82800         9.72000        37.29100
O           7.62000         9.71100        38.48800
C           8.05800        11.02300        38.86800
O           8.47800        10.74600        40.21200
C          14.20000        23.91400         3.94700
C          13.84400        25.29300         4.48000
O          14.16500        26.41300         3.64300
H          14.27600        26.28300         2.65800
C          14.40200        25.61400         5.85700
O          13.80200        26.75900         6.48100
H          14.08100        27.58800         5.99700
C          13.98700        21.51800         4.49700
O          15.20300        21.06900         3.88200
H          14.83900        20.45900         3.17900
C          14.01100        22.92100         5.08200
O          14.64300        23.23900         6.33000
C          14.14600        24.48500         6.84100
O          14.96600        24.52900         8.01800
C          14.44100        24.00800         9.24800
C          15.16200        22.71400         9.59000
O          14.89600        21.74100         8.56900
H          14.97400        22.14300         7.65700
C          14.86000        22.13600        10.96300
O          15.88900        21.21400        11.35000
H          15.60700        20.41300        10.82200
C          13.99900        26.27800        10.17000
O          14.53500        27.29700        11.02700
H          14.21300        28.20500        10.76000
C          14.67200        24.93900        10.42600
O          14.05400        24.41500        11.61100
C          14.70000        23.20500        12.03200
O          14.03300        22.81000        13.24000
C          14.80000        23.21600        14.38300
C          14.47500        24.61100        14.89100
O          14.85600        25.64400        13.97100
H          14.46300        25.51800        13.06000
C          14.99800        24.95200        16.27700
O          14.43900        26.21300        16.67500
H          14.57900        26.98400        16.05400
C          14.81300        20.81300        15.24300
O          14.47000        19.65200        16.01300
H          15.09700        18.91400        15.76200
C          14.50000        22.27200        15.53600
O          15.00200        22.63400        16.83100
C          14.53600        23.91300        17.28500
O          15.24200        24.06300        18.52600
C          14.44500        23.95800        19.71500
C          14.71700        22.54700        20.21100
O          14.45200        21.45000        19.32500
H          14.74400        21.75100        18.41700
C          14.15800        22.22200        21.58600
O          14.50900        20.93100        22.10700
H          14.67300        20.32000        21.33200
C          14.18200        26.15600        20.61700
O          14.60500        27.35500        21.28300
H          14.16800        28.08000        20.75100
C          14.82900        24.81300        20.91200
O          14.35300        24.46100        22.21900
C          14.53000        23.13700        22.74200
O          13.66200        23.04200        23.88000
C          14.40800        23.38400        25.05700
C          13.98800        24.76000        25.54600
O          14.01700        25.81200        24.57100
H          14.30100        25.46900        23.67600
C          14.58800        25.27900        26.84300
O          14.01500        26.51100        27.30400
H          13.80400        27.06900        26.50100
C          14.17700        21.03000        25.72800
O          13.95000        20.07000        26.77000
H          14.00500        19.13800        26.41200
C          14.04700        22.46400        26.21200
O          14.85500        22.84000        27.33700
C          14.39500        24.11700        27.80300
O          15.09800        24.33100        29.03600
C          14.46700        23.81700        30.21800
C          14.97000        22.43100        30.58800
O          14.88500        21.44000        29.55400
H          14.96200        21.86000        28.64900
C          14.47000        21.90700        31.92400
O          15.10600        20.67000        32.27900
H          14.94400        19.96700        31.58600
C          14.47900        26.13800        30.86600
O          14.72200        27.11500        31.88900
H          14.16500        27.88300        31.57200
C          14.77600        24.74100        31.38500
O          14.18300        24.13700        32.54400
C          14.75000        22.91100        33.02900
O          13.77800        22.49800        34.00100
C          14.14200        23.06300        35.26800
C          13.48500        24.33200        35.78800
O          13.50600        25.34700        34.77300
H          13.68200        24.91600        33.88800
C          14.03600        24.74900        37.14100
O          13.27400        25.90600        37.51700
H          13.52700        26.61800        36.86100
C          14.27000        20.61100        36.08500
O          13.88200        19.47700        36.87500
H          14.22400        18.59000        36.56500
C          13.94800        22.06300        36.39700
O          14.42900        22.51600        37.67100
C          13.68500        23.65200        38.13300
O          14.47800        23.95700        39.29000
C          14.01300        23.43400        40.54300
C          14.48500        22.04600        40.94700
O          14.26800        21.16000        39.83900
H          14.61300        21.75000        39.10800
C          13.60900        22.68500         0.46100
O          13.73300        21.33600         0.93600
H          13.54500        20.70900         0.18000
C          13.95600        26.98000        -0.38500
O          13.90500        27.76400         0.81600
H          13.75000        28.71400         0.54300
C          14.20900        25.50800        -0.10500
O          13.68000        24.97200         1.11700
C          14.04400        23.65300         1.54800
O          13.39100        23.54200         2.82100
C           9.35900        19.74700         0.34000
C           9.63400        18.36100         0.90000
O           9.06400        17.32800         0.08200
H           9.38800        17.65500        -0.80600
C           9.22000        18.11000         2.34000
O           9.71100        16.89800         2.93200
H           9.26800        16.26400         2.29800
C           9.48500        22.16900         0.72700
O          10.21900        23.31300         1.18500
H           9.91500        24.23900         0.96000
C           9.79400        20.81000         1.33600
O           9.25200        20.51700         2.63200
C           9.77400        19.27900         3.13700
O           9.03300        19.35200         4.36400
C           9.77400        19.28500         5.59100