# freq=raman b3lyp/6-31+g(d,p) geom=connectivity

300 9000.com

0 1
 O                  7.56900000    7.70600000   22.86100000
 C                  8.13900000    8.04100000   24.13500000
 C                  7.48700000    9.29400000   24.69700000
 O                  7.59200000   10.31500000   23.69400000
 H                  7.21500000    9.89200000   22.86900000
 C                  8.22500000    9.68400000   25.96700000
 O                  7.66200000   10.90000000   26.48100000
 H                  8.15600000   11.15100000   27.31300000
 C                  8.12700000    5.52600000   24.80600000
 O                  7.60800000    4.85500000   23.64900000
 H                  7.90200000    3.91100000   23.80300000
 C                  7.92900000    6.98000000   25.20300000
 O                  8.66500000    7.40400000   26.35900000
 C                  8.02600000    8.54400000   26.95200000
 O                  8.88500000    8.82800000   28.06600000
 C                  8.20700000    8.42200000   29.26300000
 C                  8.89000000    7.14300000   29.71800000
 O                  8.70900000    6.13500000   28.71300000
 H                  9.14400000    6.54500000   27.91100000
 C                  8.30200000    6.65300000   31.03200000
 O                  8.91500000    5.48700000   31.59900000
 H                  8.59900000    5.19400000   32.50100000
 C                  7.71800000   10.84700000   29.99200000
 O                  8.37300000   11.60500000   28.96400000
 H                  8.12500000   12.54500000   29.19700000
 C                  8.30800000    9.49000000   30.34000000
 O                  7.82700000    8.97200000   31.58900000
 C                  8.40300000    7.75200000   32.07700000
 O                  7.64900000    7.49100000   33.27000000
 H                  8.25102122    7.33118413   34.00049937
 H                  9.42994448    7.91519348   32.32929531
 H                  7.26599605    6.43870719   30.87176765
 H                  9.93585738    7.32848966   29.84713528
 H                  7.17813014    8.22419140   29.04574767
 H                  9.35503476    9.66057880   30.47971790
 H                  7.71273261   11.43979320   30.88276848
 H                  6.70284320   10.69482911   29.69000549
 H                  8.27259030    7.53990834   22.22935591
 H                  7.76932517    4.95898574   25.63994457
 H                  9.18750420    5.39481790   24.75102642
 H                  6.89749201    7.05421049   25.47756158
 H                  9.18791151    8.21485005   24.01474694
 H                  6.45750288    9.10242241   24.91684930
 H                  9.26673781    9.81698735   25.76206906
 H                  7.00506892    8.37506203   27.22413911

 1 2 1.0 38 1.0
 2 3 1.0 12 1.0 42 1.0
 3 4 1.0 6 1.0 43 1.0
 4 5 1.0
 5
 6 7 1.0 14 1.0 44 1.0
 7 8 1.0
 8
 9 10 1.0 12 1.0 39 1.0 40 1.0
 10 11 1.0
 11
 12 13 1.0 41 1.0
 13 14 1.0
 14 15 1.0 45 1.0
 15 16 1.0
 16 17 1.0 26 1.0 34 1.0
 17 18 1.0 20 1.0 33 1.0
 18 19 1.0
 19
 20 21 1.0 28 1.0 32 1.0
 21 22 1.0
 22
 23 24 1.0 26 1.0 36 1.0 37 1.0
 24 25 1.0
 25
 26 27 1.0 35 1.0
 27 28 1.0
 28 29 1.0 31 1.0
 29 30 1.0
 30
 31
 32
 33
 34
 35
 36
 37
 38
 39
 40
 41
 42
 43
 44
 45

