# freq=raman b3lyp/6-31+g(2d,p) geom=connectivity
290 9000.com
290 9000.com
C           8.17300         8.06900         3.05500
0 1
O           8.24600        10.36900         2.47300
H           8.18300        10.09100         1.51500
C           8.07400         9.75000         4.89700
O           7.42600        10.91300         5.43400
H           7.90200        11.22800         6.25500
C           8.42300         5.55000         3.93100
O           8.06000         4.74300         2.80100
H           8.16700         3.77900         3.04400
C           7.82800         6.94600         4.02000
O           8.17500         7.35400         5.35200
C           7.72700         8.62100         5.85500
O           8.41500         8.84100         7.09500
C           7.78900         8.42200         8.31600
C           8.37300         7.10400         8.79600
O           8.04200         6.05000         7.88000
H           8.22100         6.41200         6.96500
C           7.97400         6.68500        10.20200
O           8.65800         5.53500        10.72100
H           8.24200         5.45000        11.62700
C           7.91100        10.88200         8.98300
O           8.17700        11.62600         7.78500
H           8.12000        12.60300         7.99000
C           8.26800         9.44700         9.33200
O           7.73600         9.13200        10.62600
C           8.23900         7.87700        11.10700
O           7.55400         7.65500        12.34800
C           8.06500         8.00200        13.64400
C           7.62800         9.39100        14.07700
O           7.74100        10.43800        13.10200
H           7.34700        10.07300        12.25800
C           8.24400         9.75300        15.41900
O           7.94500        10.99900        16.06500
H           8.24600        11.12500        17.01000
C           8.27300         5.54900        14.31900
O           7.77500         4.93700        13.12100
H           7.90000         3.94700        13.18700
C           7.70800         6.92100        14.65200
O           8.19900         7.33100        15.93600
C           7.89400         8.65200        16.40600
O           8.79400         8.77000        17.51700
C           8.35400         8.39400        18.83000
C           8.70800         6.97300        19.23900
O           8.30700         5.97400        18.29100
H           8.50800         6.37000        17.39500
C           8.25500         6.60800        20.64300
O           8.74200         5.34300        21.11400
H           8.29000         5.21600        21.99600
C           8.41100        10.77600        19.69800
O           8.83600        11.50000        18.53500
H           8.82800        12.47900        18.74000
C           8.82000         9.33100        19.93200
O           8.30800         8.94200        21.21500
C           8.74500         7.64400        21.64100
O           8.01100         7.51000        22.86700
C           8.53900         7.93100        24.13300
C           8.01200         9.29100        24.56100
O           8.56100        10.37100        23.79200
H           8.59600        10.15500        22.81600
C           8.40000         9.66700        25.98200
O           7.74400        10.84200        26.48100
H           8.06500        11.00100        27.41500
C           8.35200         5.46900        24.99900
O           7.96500         4.89000        23.74400
H           7.88000         3.90300        23.88000
C           8.08300         6.95100        25.20200
O           8.79300         7.28300        26.40400
C           8.19200         8.48300        26.91200
O           8.89900         8.73900        28.13400
C           8.35600         8.33600        29.40000
C           8.74100         6.98300        29.97600
O           8.54900         6.00900        28.94000
H           8.91200         6.42200        28.10500
C           8.06300         6.66600        31.29900
O           8.27700         5.33600        31.79200
H           7.87900         5.23600        32.70400
C           8.20500        10.87300        30.08700
O           8.77000        11.48000        28.91500
H           8.65400        12.46800        29.01200
C           8.58900         9.44100        30.41800
O           8.06900         9.06900        31.70300
C           8.47500         7.79700        32.22800
O           7.54800         7.65800        33.31500
C           7.92900         8.06700        34.63600
C           7.39700         9.44100        35.00900
O           7.79100        10.47100        34.09100
H           7.73100        10.26100        33.11500
C           7.79700         9.79300        36.43200
O           7.33900        11.02500        37.00800
H           7.82800        11.22800        37.85600
C           7.78200         5.58900        35.43200
O           7.35800         4.88900        34.25300
H           7.72600         3.96700        34.37200
C           7.36800         7.04100        35.60800
O           7.87400         7.32800        36.91900
C           7.53700         8.64100        37.39000
O           8.37800         8.89000        38.52600
C           7.84200         8.52800        39.80700
C           8.48200         7.23400        40.28300
O           8.23100         6.19200        39.32900
H           8.43500         6.63400        38.45500
C           7.96800         6.75600        -0.43200
O           8.74800         5.63300         0.00500
H           8.48200         5.39900         0.94000
C           8.09400        10.95600        40.65600
O           8.37300        11.62400        39.41700
H           8.31800        12.60200        39.61900
C           8.30300         9.47200        -1.16000
O           7.85400         9.18800         0.17300
C           8.22800         7.86300         0.57700
O           7.51600         7.75800         1.81800
C           3.86000         4.40500         0.28000
C           4.17500         2.99400        42.81800
O           3.88400         1.96700        41.85900
H           4.14500         2.37100        40.98300
C           3.66000         2.67400         2.14800
O           4.14500         1.42800         2.66900
H           3.61400         1.27700         3.50300
C           3.96500         6.79200         1.08500
O           4.60700         7.49400         0.01100
H           4.43200         8.47000         0.14500
C           4.20900         5.33200         1.43200
O           3.48300         5.00400         2.62500
C           3.98500         3.76700         3.15300
O           3.26300         3.62000         4.38400
C           4.04000         3.87300         5.56400
C           3.77100         5.28500         6.05600
O           4.16500         6.27200         5.09200
H           3.87700         5.93700         4.19500
C           4.46100         5.56100         7.38200
O           3.93100         6.79800         7.87800
H           4.36400         6.96700         8.76400
C           3.97500         1.45500         6.33000
O           3.45400         0.85200         5.13600
H           3.86000        -0.05000         4.99400
C           3.66100         2.90300         6.67100
O           4.37800         3.17800         7.88300
C           4.01800         4.48300         8.35900
O           4.78900         4.49800         9.56900
C           4.03700         4.36000        10.78300
C           4.37800         2.99600        11.36000
O           4.12400         2.03900        10.32200
H           4.25200         2.46700         9.42800
C           3.85400         2.64900        12.74400
O           4.27800         1.39800        13.30700
H           3.73600         1.12500        14.10200
C           3.93800         6.72600        11.73400
O           4.30300         7.53100        10.60400
H           3.82000         8.39500        10.75100
C           4.38900         5.28900        11.93400
O           3.78400         5.00900        13.20400
C           4.21900         3.74600        13.73100
O           3.32900         3.68300        14.85500
C           3.93400         3.90100        16.13800
C           3.45400         5.27000        16.59200
O           3.88700         6.22000        15.60700
H           3.62800         5.85700        14.71200
C           4.04700         5.62200        17.94700
O           3.71400         6.91600        18.46900
H           4.07400         6.99500        19.39900
C           3.89100         1.45600        16.91700
O           3.30700         0.73400        15.82300
H           3.58600        -0.22300        15.89700
C           3.45000         2.88900        17.16300
O           3.87800         3.21100        18.49500
C           3.65600         4.55200        18.95400
O           4.58300         4.56100        20.04900
C           3.89800         4.47100        21.30700
C           3.90100         3.02900        21.78900
O           3.28000         2.12900        20.86000
H           3.39900         2.55900        19.96500
C           3.42800         2.80300        23.21500
O           3.56200         1.46500        23.71800
H           3.51200         1.47600        24.71700
C           4.28400         6.85600        22.09500
O           4.83100         7.58000        20.98400
H           4.66000         8.54300        21.19100
C           4.52100         5.37700        22.35500
O           4.01800         5.13200        23.67700
C           4.10900         3.78200        24.15700
O           3.41800         3.80100        25.41500
C           4.17600         3.95600        26.62300
C           4.13400         5.37300        27.17000
O           4.56200         6.32500        26.18600
H           4.51400         5.84300        25.31100
C           4.74400         5.60600        28.54300
O           4.43800         6.93200        28.99700
H           4.55300         6.89000        29.98900
C           4.01900         1.55500        27.40300
O           3.56200         0.71800        26.33000
H           3.85900        -0.23100        26.43600
C           3.59500         2.99400        27.64700
O           4.02000         3.23300        28.99700
C           3.90600         4.62100        29.34200
O           4.48800         4.58600        30.65400
C           3.73400         4.32100        31.84500
C           4.11300         2.91500        32.28400
O           3.63900         1.90300        31.38400
H           3.81100         2.27800        30.47200
C           3.51700         2.58800        33.64300
O           4.04900         1.30500        34.00700
H           3.72500         1.14700        34.94000
C           3.54700         6.72200        32.73300
O           4.22800         7.46500        31.71100
H           3.94900         8.42500        31.74200
C           4.03200         5.30100        32.96800
O           3.53800         4.98300        34.27800
C           3.94100         3.65400        34.64000
O           3.28100         3.45000        35.89800
C           4.00700         3.77300        37.09300
C           3.80800         5.20400        37.56300
O           3.84800         6.26100        36.59400
H           3.70100         5.81900        35.70900
C           4.45700         5.56500        38.88900
O           4.27200         6.92000        39.32300
H           4.61400         7.04200        40.25500
C           4.11400         1.36800        38.01500
O           4.08800         0.70100        36.74500
H           4.18100        -0.28000        36.91700
C           3.71500         2.81800        38.23900
O           4.27200         3.19200        39.50700
C           4.01300         4.54100        39.92200
O           4.64600         4.75100        41.19200
C           8.10000        16.38600         3.05800
C           7.53200        17.71400         3.53300
O           7.84800        18.72300         2.56200
H           7.59200        18.33200         1.67800
C           7.98900        18.13400         4.92100
O           7.20200        19.22700         5.41600
H           7.58300        19.36600         6.33000
C           8.43500        13.95400         3.98800
O           8.05000        13.14000         2.87000
H           8.07000        12.20900         3.23600
C           7.85300        15.35000         4.14200
O           8.43900        15.69700         5.40500
C           7.93000        16.95300         5.87600
O           8.75300        17.22400         7.02000
C           8.26300        16.85500         8.31800
C           8.80000        15.48600         8.70200
O           8.60200        14.43400         7.74700
H           8.91100        14.69100         6.83100
C           8.36100        14.90400        10.03600
O           8.97200        13.70200        10.52500
H           8.82500        13.55200        11.50300
C           7.82400        19.14400         9.24800
O           8.24900        19.86400         8.08200
H           8.38500        20.83300         8.28800
C           8.51400        17.80800         9.47500
O           8.02900        17.22400        10.69200
C           8.60800        15.97200        11.08800
O           7.91400        15.58500        12.28300
C           8.43300        15.99600        13.55600
C           7.82100        17.32400        13.97300
O           7.87800        18.41600        13.04400
H           7.55200        18.15100        12.13700
C           8.19500        17.82400        15.35900
O           7.43400        18.96800        15.77200
H           7.70700        19.10800        16.72400
C           8.33000        13.64300        14.37300
O           7.78000        13.02100        13.20300
H           7.82200        12.03200        13.34200
C           8.02100        15.09300        14.70700
O           8.61900        15.49200        15.95000
C           8.02900        16.72200        16.39400
O           8.80300        17.00000        17.57000
C           8.26300        16.58000        18.83200
C           8.96100        15.30800        19.28300
O           8.78600        14.16600        18.43100
H           8.75900        14.57300        17.51800
C           8.40400        14.84000        20.61800
O           8.90600        13.56800        21.05200
H           8.57100        13.44200        21.98600
C           7.61400        18.78700        19.71400
O           7.71100        19.45200        18.44700
H           7.86800        20.42700        18.60500
C           8.56300        17.61500        19.90400
O           8.07000        17.23000        21.19500
C           8.65100        15.97900        21.59300
O           7.93100        15.67300        22.79600
C           8.45400        16.20300        24.02200
C           7.89800        17.52700        24.52100
O           8.29900        18.60800        23.66700
H           8.12300        18.18300        22.77900
C           8.47300        17.86500        25.88600
O           7.87300        19.06100        26.40500
H           8.22500        19.29700        27.31100
C           8.63600        13.78300        24.96300
O           8.26700        13.02300        23.80300
H           8.41500        12.06300        24.04000
C           8.20000        15.22600        25.15800
O           8.88500        15.55400        26.37500
C           8.24700        16.73600        26.87900
O           9.07400        16.90000        28.04000
C           8.44400        16.51000        29.26900
C           8.86100        15.17800        29.87000
O           8.55400        14.27400        28.79900
H           8.75300        14.81600        27.98200
C           8.33100        14.80900        31.24600
O           8.89700        13.58300        31.73300
H           8.61200        13.37600        32.66800
C           8.36800        19.01700        30.06000
O           8.80900        19.70000        28.87800
H           8.63500        20.66600        29.07000
C           8.82900        17.58400        30.27400
O           8.22500        17.19900        31.51700
C           8.65700        15.98600        32.15000
O           7.86100        15.97100        33.34400
C           8.44500        16.31600        34.60800
C           7.92000        17.66900        35.06000
O           8.28800        18.59400        34.02500
H           8.47200        18.07100        33.19300
C           8.31600        18.04100        36.47900
O           7.56400        19.18200        36.91700
H           7.91000        19.47800        37.80800
C           8.20100        13.78700        35.39300
O           7.87300        13.01700        34.22700
H           8.11500        12.04800        34.27800
C           8.00800        15.27600        35.62600
O           8.52600        15.64600        36.91200
C           8.07000        16.89700        37.44800
O           8.78800        17.18200        38.65800
C           8.14800        16.80600        39.88600
C           8.64600        15.44800        40.35300
O           8.43800        14.40300        39.39100
H           8.71700        14.76900        38.50300
C           8.05900        15.06300        -0.36200
O           8.68000        13.86500         0.12700
H           8.22200        13.56200         0.96300
C           7.61400        19.15000        40.81800
O           7.81300        19.83700        39.57400
H           7.47300        20.77500        39.64100
C           8.37300        17.84400        -1.09300
O           7.79000        17.45600         0.15900
C           8.32000        16.20100         0.61100
O           7.53800        15.99500         1.79700
C           3.79900        12.46900         0.17200
C           4.32000        11.15500        42.79800
O           4.18800        10.11900        41.81400
H           4.23000        10.54700        40.91200
C           3.65100        10.80200         2.05400
O           4.27800         9.58600         2.48700
H           3.96600         9.37200         3.41300
C           3.79100        14.91700         0.85500
O           4.49900        15.63800        -0.16400
H           4.30100        16.59900         0.02800
C           4.04300        13.48000         1.28000
O           3.34100        13.13000         2.48200
C           3.84700        11.92000         3.06500
O           3.09100        11.73500         4.27100
C           3.92800        12.07600         5.38500
C           3.65800        13.49600         5.85600
O           3.67800        14.58500         4.92300
H           3.44100        14.36000         3.97700
C           4.45300        13.80000         7.11600
O           4.55700        15.16700         7.54100
H           4.63000        15.12900         8.53700
C           3.80100         9.72100         6.32800
O           3.56200         8.99900         5.11200
H           3.82300         8.04100         5.23000
C           3.42500        11.18300         6.50800
O           4.19100        11.60000         7.64700
C           3.89500        12.89200         8.19900
O           4.57500        12.85200         9.46200
C           3.80500        12.68600        10.66100
C           4.08600        11.29200        11.19700
O           3.44800        10.43400        10.23900
H           3.64200        10.73700         9.30600
C           3.69300        10.99800        12.63600
O           4.26700         9.79800        13.17500
H           3.91000         9.57000        14.08100
C           3.81400        15.03400        11.36600
O           4.43600        15.69400        10.25400
H           4.09900        16.63500        10.23300
C           4.28200        13.63800        11.74500
O           3.54300        13.39800        12.95100
C           4.00400        12.17600        13.54500
O           3.29900        12.20300        14.79400
C           4.14300        12.18300        15.95500
C           4.08100        13.59300        16.51800
O           4.40000        14.59700        15.54400
H           4.15000        14.15300        14.68300
C           4.88300        13.74000        17.80100
O           4.73700        15.10600        18.21800
H           4.90200        15.06700        19.20300
C           4.04400         9.75300        16.67700
O           3.34600         9.06800        15.62600
H           3.49100         8.09300        15.79400
C           3.70700        11.19400        17.02300
O           4.44000        11.42000        18.23600
C           4.28400        12.74000        18.77700
O           4.82600        12.90800        20.09500
C           4.30100        12.60100        21.39500
C           4.63500        11.17500        21.80200
O           4.10000        10.20400        20.89100
H           4.18500        10.70400        20.02900
C           4.17000        10.73700        23.18100
O           4.77300         9.50600        23.60700
H           4.42500         9.29900        24.52100
C           4.40500        14.97600        22.07100
O           4.67700        15.58100        20.79800
H           4.13500        16.42200        20.79400
C           4.83000        13.56500        22.44400
O           4.29800        13.21500        23.73000
C           4.62100        11.86500        24.09400
O           3.88800        11.71200        25.31800
C           4.47600        12.10500        26.56700
C           4.15700        13.52400        27.00900
O           4.50500        14.47500        25.99300
H           4.29900        14.10100        25.08900
C           4.56300        13.84800        28.43800
O           4.06000        15.14700        28.78400
H           4.07500        15.18200        29.78300
C           4.52100         9.67400        27.38500
O           4.11500         8.91300        26.23900
H           4.21200         7.92200        26.33000
C           4.01300        11.09000        27.60000
O           4.48500        11.43900        28.91000
C           4.07400        12.73900        29.35500
O           4.86300        12.88300        30.54500
C           4.17200        12.61400        31.77300
C           4.28800        11.19600        32.30800
O           3.87600        10.22900        31.33200
H           3.90900        10.62800        30.41500
C           3.61900        10.80600        33.61600
O           4.16600         9.55300        34.05500
H           3.64100         9.30900        34.87000
C           4.61100        14.94700        32.58100
O           3.55700        15.67300        31.93200
H           3.65300        16.64500        32.14600
C           4.55500        13.47700        32.96400
O           3.83700        13.25500        34.18600
C           3.98400        11.89300        34.61400
O           3.14500        11.90300        35.77800
C           3.86200        12.13600        37.00000
C           3.73800        13.55100        37.54200
O           4.19200        14.53800        36.60500
H           3.92800        14.20200        35.70100
C           4.30100        13.86200        38.91900
O           3.87100        15.16100        39.35300
H           4.09700        15.34600        40.30900
C           3.79300         9.62700        37.92700
O           3.54500         8.92900        36.69800
H           3.83600         7.98200        36.83500
C           3.50900        11.11400        38.06800
O           4.05800        11.47700        39.34300
C           3.74400        12.78700        39.83800
O           4.54400        12.65500        41.02200
C           8.00700        24.49300         3.01400
C           7.45300        25.79300         3.57400
O           7.17000        26.72500         2.52000
H           7.17900        26.23300         1.65000
C           8.17600        26.20700         4.84600
O           7.53000        27.37900         5.36400
H           7.81700        27.61500         6.29200
C           8.38200        22.10000         3.80700
O           7.64700        21.31200         2.85900
H           7.88900        20.34300         2.90000
C           7.85300        23.48500         4.14100
O           8.66000        23.96000         5.22800
C           7.95100        25.06000         5.81800
O           8.63500        25.28000         7.06000
C           8.03500        24.82000         8.28000
C           8.72400        23.54100         8.72500
O           8.79100        22.48400         7.75600
H           9.21300        22.91600         6.95900
C           8.04500        23.26200        10.05600
O           8.62900        22.02700        10.49500
H           8.14000        21.67100        11.29100
C           7.78100        27.29300         8.97300
O           8.27700        28.02200         7.84100
H           7.91800        28.95100         7.93000
C           8.17900        25.87800         9.36200
O           7.59100        25.49000        10.61200
C           8.12200        24.28300        11.17800
O           7.19400        23.97400        12.22800
C           7.67200        24.37300        13.52100
C           7.01900        25.62500        14.08400
O           7.20300        26.66600        13.11300
H           7.02000        26.36700        12.17700
C           7.58600        26.02400        15.43600
O           6.86500        27.05800        16.12100
H           7.22600        27.18400        17.04500
C           8.18000        21.92900        14.14700
O           7.49600        21.18100        13.13200
H           7.52300        20.19000        13.26300
C           7.60600        23.27300        14.56700
O           8.20200        23.66700        15.81200
C           7.47100        24.79200        16.32000
O           8.18300        25.04300        17.54000
C           7.64600        24.75100        18.83900
C           8.22600        23.40600        19.24500
O           8.21400        22.27200        18.36500
H           8.62600        22.50600        17.48500
C           7.77900        23.05600        20.65500
O           8.53600        21.97700        21.22300
H           8.18300        21.74400        22.12900
C           7.45800        27.26500        19.64900
O           7.86400        27.87700        18.41600
H           8.00900        28.85900        18.54200
C           8.00600        25.85700        19.81800
O           7.57700        25.46800        21.13100
C           8.01800        24.19700        21.63000
O           7.25600        23.95700        22.82300
C           7.87600        24.32600        24.06400
C           7.42000        25.71400        24.48200
O           7.74500        26.71400        23.50400
H           7.75500        26.30100        22.59400
C           8.01400        26.04200        25.84200
O           7.41800        27.27400        26.27500
H           7.70700        27.40300        27.22400
C           8.24700        21.88700        24.89600
O           7.89700        21.24700        23.66100
H           8.10700        20.27100        23.72900
C           7.71500        23.28500        25.16000
O           8.29300        23.72900        26.39600
C           7.83900        24.98500        26.92000
O           8.67800        25.25400        28.05200
C           8.10400        24.83800        29.30000
C           8.64700        23.50000        29.77600
O           8.22000        22.50500        28.83400
H           8.53300        22.89200        27.96600
C           8.15400        23.08000        31.15100
O           8.86800        21.91600        31.59000
H           8.45700        21.47200        32.38700
C           7.69200        27.17100        30.03800
O           7.81100        27.91300        28.81500
H           7.76600        28.87800        29.07300
C           8.45100        25.89000        30.34100
O           7.86300        25.42400        31.56500
C           8.37100        24.21300        32.14100
O           7.55900        23.96900        33.29900
C           8.16100        24.30400        34.55800
C           7.69500        25.65200        35.08300
O           7.80400        26.65500        34.06200
H           7.61800        26.22800        33.17800
C           8.36700        26.03200        36.39200
O           7.69900        27.20100        36.88700
H           8.06800        27.40200        37.79500
C           8.84600        21.92600        35.26100
O           8.31700        21.19900        34.14300
H           8.32000        20.21200        34.30200
C           8.10300        23.20600        35.60800
O           8.76400        23.66800        36.79500
C           8.16600        24.85600        37.33400
O           8.81500        25.11100        38.58800
C           8.12000        24.83400        39.81300
C           8.47300        23.46000        40.35700
O           8.23800        22.47100        39.34400
H           8.64600        22.80100        38.49300
C           7.87600        23.15300        -0.34300
O           8.24000        21.92400         0.30300
H           7.83000        21.95300         1.21400
C           7.68100        27.20700        40.57100
O           8.28700        27.96600        39.51500
H           7.97300        28.91000        39.61500
C           8.40800        25.90400        -1.21300
O           7.79200        25.62000         0.05200
C           8.17200        24.33500         0.56600
O           7.43700        24.06600         1.76800
C           3.64800        20.72000         0.03900
C           3.97700        19.33800        42.64700
O           3.64700        18.37300        41.63800
H           3.89400        18.85100        40.79500
C           3.40700        19.05500         1.96400
O           3.91700        17.84100         2.53600
H           3.80900        17.91400         3.52700
C           3.76400        23.17400         0.91200
O           4.19000        23.81900        -0.29700
H           4.01200        24.78700        -0.12000
C           3.93000        21.68700         1.17800
O           3.23700        21.41300         2.40400
C           3.76000        20.18100         2.92200
O           3.05300        20.16600         4.17100
C           3.76600        20.42400         5.38900
C           3.45300        21.84000         5.84300