# freq=raman b3lyp/6-31+g(d,p) geom=connectivity

290 5000.com

0 1
 O                  7.61100000    7.56200000   22.72400000
 C                  8.13300000    8.09700000   23.94900000
 C                  7.50100000    9.35400000   24.52400000
 O                  7.77500000   10.37300000   23.55200000
 H                  7.54000000   10.06200000   22.63100000
 C                  7.94500000    9.81900000   25.90100000
 O                  7.18100000   10.94400000   26.35700000
 H                  7.56700000   11.34900000   27.18600000
 C                  8.33800000    5.60800000   24.80700000
 O                  7.60100000    4.89300000   23.80500000
 H                  8.00500000    3.99100000   23.95300000
 C                  7.89500000    7.04600000   25.02100000
 O                  8.59600000    7.51300000   26.18300000
 C                  7.97900000    8.62700000   26.84500000
 O                  8.82100000    8.82700000   27.98900000
 C                  8.28700000    8.44800000   29.26600000
 C                  8.85700000    7.10300000   29.68700000
 O                  8.68900000    6.04800000   28.72800000
 H                  9.09500000    6.30900000   27.85300000
 C                  8.21100000    6.67300000   30.99400000
 O                  8.70600000    5.50300000   31.66200000
 H                  8.17300000    5.24200000   32.46700000
 C                  8.02400000   10.84800000   30.05000000
 O                  8.73400000   11.56600000   29.03000000
 H                  8.60300000   12.55100000   29.13700000
 C                  8.68500000    9.50000000   30.28800000
 O                  8.00600000    9.04900000   31.46900000
 C                  8.41700000    7.78500000   32.00900000
 O                  7.56900000    7.63300000   33.15700000
 H                  8.11017903    7.52892214   33.94306174
 H                  8.33769217    7.31093146   22.14912343
 H                  8.24077323    5.08394370   25.73479952
 H                  9.37071957    5.61177831   24.52704284
 H                  6.84865439    7.03676410   25.24455214
 H                  9.18579976    8.25413901   23.84028015
 H                  6.44215220    9.20331701   24.55618668
 H                  8.95489598   10.15798288   25.80049762
 H                  6.98762083    8.37008694   27.15494035
 H                  8.03621043   11.41483943   30.95743813
 H                  7.01139406   10.69717281   29.73890455
 H                  9.74363408    9.57097758   30.42640541
 H                  7.22037695    8.38620362   29.20772064
 H                  9.90545168    7.22830169   29.86005656
 H                  7.16089674    6.55091978   30.82883471
 H                  9.44293548    7.82753297   32.30991086

 1 2 1.0 31 1.0
 2 3 1.0 12 1.0 35 1.0
 3 4 1.0 6 1.0 36 1.0
 4 5 1.0
 5
 6 7 1.0 14 1.0 37 1.0
 7 8 1.0
 8
 9 10 1.0 12 1.0 32 1.0 33 1.0
 10 11 1.0
 11
 12 13 1.0 34 1.0
 13 14 1.0
 14 15 1.0 38 1.0
 15 16 1.0
 16 17 1.0 26 1.0 42 1.0
 17 18 1.0 20 1.0 43 1.0
 18 19 1.0
 19
 20 21 1.0 28 1.0 44 1.0
 21 22 1.0
 22
 23 24 1.0 26 1.0 39 1.0 40 1.0
 24 25 1.0
 25
 26 27 1.0 41 1.0
 27 28 1.0
 28 29 1.0 45 1.0
 29 30 1.0
 30
 31
 32
 33
 34
 35
 36
 37
 38
 39
 40
 41
 42
 43
 44
 45

