# freq=raman b3lyp/6-31+g(2d,p) geom=connectivity

473 6000/6000.com

0 1
C           8.37200         7.81500         3.03500
C           7.84700         9.16900         3.48400
O           8.13000        10.21200         2.54000
H           7.56400         9.88400         1.78300
C           8.37400         9.50200         4.87000
O           7.92300        10.75600         5.40200
H           8.38100        10.94500         6.27100
C           8.52700         5.29500         3.82000
O           8.13200         4.66900         2.59100
H           8.21300         3.67400         2.64400
C           8.03200         6.71700         4.03000
O           8.52200         7.05000         5.33700
C           8.10300         8.33900         5.81000
O           8.89100         8.49300         7.00000
C           8.30200         8.22300         8.28000
C           8.69800         6.82600         8.72800
O           8.26900         5.78400         7.83900
H           8.40000         6.17600         6.92800
C           8.28200         6.48800        10.15000
O           8.88800         5.27700        10.62500
H           8.27900         4.98900        11.36400
C           8.26300        10.70200         9.07700
O           8.57600        11.46300         7.90100
H           8.61700        12.43600         8.12600
C           8.66400         9.25800         9.33300
O           8.06900         8.92400        10.59600
C           8.53000         7.65800        11.08900
O           7.63100         7.41500        12.18100
C           8.07400         7.74100        13.50600
C           7.58300         9.06600        14.06500
O           7.89000        10.15300        13.17900
H           7.72600         9.72600        12.29000
C           8.26800         9.39100        15.38200
O           7.73200        10.55300        16.03300
H           8.10300        10.65400        16.95600
C           8.33600         5.35500        14.21900
O           7.82900         4.65300        13.07500
H           7.94200         3.68800        13.30900
C           7.79500         6.72300        14.60000
O           8.48800         7.02700        15.81900
C           8.06300         8.27300        16.39100
O           8.91400         8.52500        17.51900
C           8.23800         8.28800        18.76300
C           8.73700         6.94900        19.28100
O           8.65000         5.89000        18.31600
H           9.02200         6.31100        17.48800
C           8.10100         6.58400        20.61300
O           8.45000         5.35300        21.26300
H           8.08000         5.25800        22.18800
C           8.19300        10.69200        19.54300
O           8.64100        11.41000        18.38400
H           8.32900        12.35900        18.42900
C           8.66900         9.27800        19.83300
O           7.93000         8.98600        21.02800
C           8.31700         7.72500        21.59300
O           7.43600         7.49600        22.70200
C           8.01800         7.85200        23.96400
C           7.76400         9.29400        24.37300
O           8.16000        10.31600        23.44700
H           7.76300        10.02700        22.57600
C           8.29400         9.61000        25.76200
O           7.67400        10.80700        26.25600
H           7.94100        10.79600        27.22000
C           8.18700         5.44400        24.86100
O           7.53000         4.64700        23.86500
H           7.79900         3.73300        24.16900
C           7.71200         6.87100        25.08400
O           8.41500         7.22600        26.28400
C           7.90500         8.49500        26.71900
O           8.58000         8.67800        27.97200
C           7.98500         8.35500        29.23700
C           8.62200         7.06200        29.71800
O           8.38200         6.00300        28.78000
H           8.24100         6.38200        27.86500
C           8.17800         6.68000        31.12100
O           8.89400         5.55200        31.64600
H           8.43400         5.39800        32.52000
C           7.89600        10.85300        29.92600
O           8.07600        11.52400        28.67000
H           8.12000        12.50000        28.88400
C           8.33600         9.43500        30.24800
O           7.74100         9.07700        31.50400
C           8.34800         7.88700        32.02800
O           7.53300         7.54600        33.15900
C           7.93700         8.00900        34.45500
C           7.48000         9.31800        35.07900
O           7.42700        10.38300        34.11900
H           7.31600         9.95500        33.22200
C           8.17500         9.69500        36.37700
O           7.73000        10.93700        36.94100
H           8.29900        11.04800        37.75600
C           8.06200         5.59100        35.22900
O           8.05100         4.95400        33.94400
H           8.25800         3.98300        34.06000
C           7.57800         7.00000        35.53300
O           8.16600         7.23100        36.82200
C           7.80600         8.53800        37.29200
O           8.60500         8.62100        38.48100
C           8.19700         8.36600        39.83200
C           8.69100         6.99900        40.27600
O           8.18100         6.08700        39.29300
H           8.35000         6.55300        38.42500
C           8.08200         6.65800        -0.44800
O           8.69000         5.44000         0.00700
H           8.53300         5.27300         0.98000
C           8.07000        10.81700        40.43600
O           8.69300        11.58900        39.39900
H           8.55900        12.56800        39.55200
C           8.47800         9.42300        -1.18600
O           7.87200         8.97300         0.03400
C           8.43400         7.75500         0.54400
O           7.73800         7.53300         1.77900
C           4.32400         4.45200         0.32500
C           4.73300         3.09500        42.94500
O           4.63200         2.05700        41.95900
H           4.61400         2.55900        41.09400
C           4.00900         2.69000         2.14400
O           4.23000         1.34700         2.59700
H           3.93800         1.17700         3.53800
C           4.11000         6.88600         1.06400
O           4.54900         7.53500        -0.13800
H           4.29100         8.49600        -0.03900
C           4.68600         5.51000         1.35500
O           4.04000         5.09600         2.56800
C           4.49700         3.81900         3.03700
O           3.78400         3.65600         4.27100
C           4.25100         4.01500         5.58000
C           3.88500         5.43300         5.98400
O           4.37200         6.37600         5.01800
H           4.14800         6.05700         4.09700
C           4.38300         5.76900         7.38100
O           3.91200         7.02300         7.89400
H           4.09400         7.18100         8.86500
C           4.19700         1.58000         6.31100
O           3.71000         0.95900         5.11300
H           3.87900        -0.02600         5.15700
C           3.81200         3.01400         6.63700
O           4.39300         3.40300         7.89000
C           3.96100         4.68700         8.36200
O           4.78000         4.80200         9.53400
C           4.07100         4.57200        10.76100
C           4.25700         3.19400        11.37300
O           3.91300         2.16100        10.43700
H           4.04400         2.52100         9.51300
C           3.68000         2.84000        12.73400
O           4.13800         1.56500        13.20900
H           3.71600         1.44300        14.10800
C           3.66800         6.76400        11.49500
O           4.30400         7.56000        10.48500
H           4.24300         8.51900        10.76000
C           4.42100         5.50900        11.90600
O           3.86300         5.12200        13.17000
C           4.20900         3.85000        13.73800
O           3.38000         3.88400        14.90900
C           4.14200         4.13700        16.09800
C           3.94400         5.55200        16.61700
O           4.33800         6.46300        15.58100
H           3.96600         6.18600        14.69500
C           4.60900         5.82900        17.95600
O           4.28300         7.13800        18.44400
H           4.55200         7.13700        19.40700
C           4.10600         1.64400        16.88200
O           3.55600         1.03100        15.70700
H           3.53600         0.06300        15.95400
C           3.80900         3.10800        17.16500
O           4.47100         3.44800        18.39200
C           4.21400         4.74600        18.94700
O           4.81200         4.88400        20.24400
C           3.94600         4.60700        21.35500
C           4.21600         3.20300        21.87000
O           3.81700         2.37000        20.77200
H           4.20600         2.77000        19.94200
C           3.56700         2.80500        23.18600
O           3.97000         1.48200        23.56900
H           3.59600         1.22800        24.46100
C           3.72600         6.94700        22.16600
O           4.43400         7.71800        21.18400
H           3.94800         8.59100        21.20700
C           4.29900         5.57300        22.47400
O           3.74200         5.17500        23.73500
C           4.07100         3.84800        24.17100
O           3.30400         3.75900        25.38100
C           4.05100         3.88000        26.60000
C           3.78500         5.26600        27.16400
O           4.30500         6.18400        26.19100
H           4.18000         5.91600        25.23600
C           4.35300         5.58600        28.53700
O           4.11300         6.88500        29.09900
H           4.30200         6.85200        30.08000
C           3.75000         1.52000        27.37300
O           3.17000         0.78600        26.28500
H           3.38200        -0.18300        26.40600
C           3.42000         2.97800        27.64900
O           3.90700         3.27700        28.96500
C           3.77000         4.59000        29.52600
O           4.65500         4.44200        30.64600
C           3.94300         4.35200        31.88900
C           4.15500         2.92700        32.37400
O           3.67500         1.96100        31.42800
H           3.87000         2.35400        30.52900
C           3.69500         2.59000        33.78300
O           4.36800         1.39700        34.21100
H           4.04800         1.23600        35.14500
C           3.96100         6.74500        32.84100
O           4.49500         7.49500        31.74000
H           4.45100         8.47000        31.95600
C           4.41100         5.30000        32.98000
O           3.79700         4.98900        34.23900
C           4.20300         3.69100        34.69800
O           3.56000         3.63600        35.98000
C           4.32100         4.00100        37.14100
C           3.91300         5.38300        37.62400
O           4.37700         6.28900        36.61300
H           4.15900         5.81000        35.76300
C           4.54300         5.70500        38.96900
O           3.90900         6.87700        39.50200
H           4.28400         7.15500        40.38700
C           4.37700         1.62200        38.02400
O           3.90200         0.85100        36.91200
H           4.03400        -0.11900        37.11900
C           3.83300         3.03000        38.20400
O           4.53700         3.32600        39.41900
C           4.26600         4.61400        39.99100
O           5.01800         4.81300        41.19600
C           7.90500        16.16000         3.06400
C           7.29800        17.44500         3.60400
O           7.19800        18.44100         2.57600
H           7.16600        18.12200         1.62800
C           7.86400        17.81800         4.96500
O           7.10500        18.88100         5.55900
H           7.42000        19.13400         6.47300
C           8.22800        13.70900         3.79500
O           7.83600        12.95900         2.63700
H           7.96800        12.00100         2.89100
C           7.67000        15.08700         4.11500
O           8.36200        15.50200         5.30200
C           7.79700        16.65500         5.94200
O           8.49200        16.93800         7.16500
C           7.77700        16.41200         8.29200
C           8.52700        15.18500         8.78400
O           8.57900        14.14100         7.80100
H           8.91700        14.49300         6.92800
C           7.88000        14.71200        10.07500
O           8.40600        13.47200        10.57000
H           8.16200        13.34900        11.53200
C           7.27700        18.79100         9.31000
O           7.60000        19.59100         8.16300
H           7.86800        20.48100         8.53100
C           7.88400        17.40300         9.43900
O           7.20400        16.92400        10.60900
C           7.94500        15.80800        11.12600
O           7.26100        15.40300        12.32000
C           7.93300        15.84500        13.50800
C           7.35300        17.15000        14.02900
O           7.67000        18.20900        13.11500
H           7.38200        17.99500        12.18100
C           7.88200        17.64100        15.36700
O           7.28000        18.81500        15.93000
H           7.68300        19.04000        16.81700
C           8.26900        13.45400        14.43100
O           7.88300        12.77900        13.22400
H           7.79600        11.80300        13.42100
C           7.66100        14.83600        14.61100
O           8.26600        15.22400        15.85400
C           7.80000        16.48600        16.35200
O           8.51000        16.68100        17.58300
C           7.83200        16.31700        18.79400
C           8.34900        14.95300        19.22200
O           8.15500        13.98900        18.17800
H           8.53500        14.41000        17.35400
C           7.79900        14.58300        20.59000
O           8.54600        13.51700        21.19400
H           8.21000        13.23000        22.09100
C           7.43000        18.73000        19.53900
O           7.95700        19.49700        18.44600
H           7.95000        20.47400        18.65800
C           8.13300        17.41000        19.80700
O           7.48100        16.96800        21.00700
C           8.03100        15.75200        21.53300
O           7.33500        15.66300        22.78500
C           7.89900        16.15000        24.01200
C           7.38200        17.51800        24.42600
O           7.57100        18.53800        23.43500
H           7.30100        18.17400        22.54400
C           7.78300        17.90000        25.84200
O           7.02000        19.00100        26.35500
H           7.34200        19.20500        27.28000
C           7.97300        13.62400        24.82300
O           7.51000        12.89900        23.67400
H           7.72100        11.93100        23.81000
C           7.51900        15.06300        25.00400
O           8.03300        15.48400        26.27600
C           7.56600        16.73800        26.79700
O           8.30700        16.85300        28.02100
C           7.78000        16.49800        29.30800
C           8.31700        15.13600        29.71600
O           8.09400        14.19300        28.65900
H           8.18500        14.78600        27.85900
C           7.89600        14.79300        31.13600
O           8.49500        13.58500        31.62500
H           8.20400        13.45200        32.57200
C           7.54800        18.93500        29.94400
O           7.93600        19.67400        28.77700
H           7.73800        20.64100        28.94300
C           8.14200        17.58400        30.30800
O           7.66500        17.17000        31.59700
C           8.16200        15.92700        32.11300
O           7.38500        15.75100        33.30700
C           8.03500        16.01200        34.55900
C           7.72300        17.40400        35.08300
O           7.83200        18.43200        34.08800
H           7.57800        18.13400        33.16800
C           8.38000        17.67500        36.42700
O           8.02100        18.99800        36.85400
H           8.25900        19.22900        37.79700
C           7.73200        13.50800        35.30300
O           7.44300        12.94600        34.01500
H           7.41400        11.95400        34.13800
C           7.56900        14.99300        35.58700
O           8.16700        15.26900        36.86200
C           7.85600        16.58400        37.34600
O           8.55400        16.79900        38.58100
C           7.80200        16.44500        39.75100
C           8.37200        15.12900        40.25600
O           8.26600        14.15600        39.20700
H           8.65100        14.60100        38.39800
C           8.03400        14.78500        -0.37700
O           8.55900        13.58300         0.20500
H           8.14100        13.28300         1.06300
C           7.64100        18.89900        40.47100
O           8.31900        19.68000        39.47700
H           8.08000        20.64700        39.56400
C           7.98600        17.46900        -1.21700
O           7.34600        17.05200        -0.00200
C           8.11000        15.97700         0.56400
O           7.47400        15.63000         1.80200
C           4.02700        12.63000         0.38800
C           4.44000        11.22200        42.85500
O           4.24000        10.19700        41.87200
H           4.37400        10.75200        41.05100
C           3.77800        10.93600         2.11800
O           4.29600         9.72800         2.69300
H           3.84300         9.73300         3.58400
C           3.66700        15.07900         1.19400
O           4.16000        15.73700         0.01700
H           3.99700        16.72000         0.10100
C           4.24200        13.69500         1.45000
O           3.49100        13.28600         2.60300
C           4.09300        12.07300         3.07700
O           3.48600        11.77900         4.34300
C           4.12100        12.19300         5.56200
C           3.51200        13.51000         6.01600
O           3.52800        14.54200         5.02000
H           3.11000        14.11600         4.21800
C           4.11900        13.84300         7.36900
O           3.61600        15.06900         7.92200
H           4.06000        15.20700         8.80700
C           4.10600         9.82000         6.31900
O           3.71000         9.07900         5.15600
H           4.06500         8.15100         5.26600
C           3.74400        11.24900         6.69200
O           4.27500        11.56600         7.98600
C           3.79000        12.83200         8.45500
O           4.51500        13.03200         9.67700
C           3.77900        12.73400        10.87300
C           4.14000        11.35400        11.39800
O           4.13400        10.29200        10.43200
H           4.08900        10.79000         9.56600
C           3.33000        11.09500        12.65800
O           3.44600         9.72600        13.07000
H           3.57900         9.68100        14.06000
C           3.64600        15.08000        11.54800
O           4.08300        15.87200        10.43300
H           3.66200        16.77800        10.47800
C           4.13200        13.70800        11.98400
O           3.53300        13.47200        13.26700
C           3.75300        12.12100        13.69800
O           2.99400        12.00900        14.91100
C           3.71500        12.23800        16.13000
C           3.34500        13.57600        16.75000
O           3.77100        14.61200        15.85300
H           3.62400        14.26400        14.92700
C           3.89200        13.93600        18.12200
O           3.59300        15.22500        18.67900
H           3.77500        15.34200        19.65500
C           4.02100         9.90700        16.80500
O           3.80500         9.17600        15.59000
H           3.95500         8.20300        15.76800
C           3.36400        11.21900        17.20200
O           3.77300        11.55500        18.53600
C           3.38900        12.84000        19.04700
O           4.21100        12.76200        20.22100
C           3.51400        12.52900        21.45300
C           3.98900        11.16500        21.92500
O           3.62200        10.11900        21.01300
H           3.60600        10.55200        20.11100
C           3.51700        10.74700        23.30800
O           3.97300         9.44600        23.70800
H           3.91400         9.39100        24.70500
C           3.88500        15.03000        22.37200
O           4.38800        15.70100        21.20800
H           4.19800        16.67400        21.34500
C           3.94100        13.51900        22.52500
O           3.33700        13.12700        23.76600
C           3.93700        11.89900        24.20600
O           3.24500        11.79200        25.45800
C           4.03900        12.03200        26.62900
C           3.58200        13.38200        27.15700
O           3.61000        14.47700        26.23000
H           3.14500        14.15300        25.40700
C           4.20700        13.68800        28.50900
O           3.87000        14.97400        29.05000
H           4.28500        15.11300        29.94900
C           4.24900         9.55500        27.44500
O           3.86100         8.92900        26.21300
H           4.08600         7.96100        26.33000
C           3.78800        10.98100        27.69700
O           4.37300        11.24900        28.98000
C           3.77200        12.49900        29.34900
O           4.37500        12.74900        30.62800
C           3.75700        12.50700        31.90000
C           4.10100        11.10600        32.38000
O           3.84100        10.08300        31.40800
H           4.29500        10.30000        30.54400
C           3.45200        10.82300        33.72500
O           3.80400         9.49900        34.15100
H           3.37500         9.28500        35.02900
C           3.74300        14.84600        32.72300
O           4.32300        15.58600        31.63900
H           3.99000        16.52600        31.55600
C           4.25800        13.44100        32.99000
O           3.68400        13.21500        34.28600
C           3.92500        11.86900        34.72100
O           3.29700        11.76700        36.00700
C           4.11100        12.07100        37.14900
C           3.89100        13.51100        37.58200
O           4.46200        14.37600        36.58900
H           4.22200        14.10900        35.65600
C           4.42200        13.74700        38.98600
O           3.97000        15.00300        39.51200
H           4.35800        15.23100        40.40500
C           4.09800         9.69200        38.08500
O           3.85900         8.96900        36.86900
H           4.03200         7.99200        36.99700
C           3.71300        11.14800        38.28900
O           4.55100        11.43000        39.42000
C           4.09100        12.66100        39.99800
O           4.74900        12.89500        41.25100
C           8.09700        24.23600         2.99800
C           7.67200        25.60400         3.50400
O           7.75700        26.60800         2.48300
H           7.18500        26.32800         1.71200
C           8.30700        25.96600         4.83700
O           7.74600        27.17300         5.37200
H           7.94200        27.30700         6.34300
C           8.06600        21.87200         3.74400
O           7.66700        21.14700         2.57100
H           7.64000        20.15700         2.70700
C           7.57200        23.27600         4.05300
O           8.24800        23.47500         5.30300
C           7.93800        24.80400         5.74500
O           8.70300        24.98700         6.94500
C           8.11200        24.57500         8.18600
C           8.43000        23.18400         8.70900
O           8.26700        22.12200         7.75800
H           8.37200        22.53600         6.85400
C           7.85800        22.89000        10.08700
O           8.35700        21.68700        10.68900
H           7.90400        21.72400        11.58000
C           7.97200        27.00000         8.94100
O           8.24900        27.79600         7.78000
H           8.11900        28.74800         8.05700
C           8.48500        25.60100         9.24400
O           7.87300        25.30200        10.50700
C           8.17500        24.01300        11.06000
O           7.54600        23.83200        12.33700
C           8.21300        24.17700        13.56000
C           7.54400        25.46400        14.01300
O           7.89500        26.59500        13.20300
H           7.50200        26.35100        12.31600
C           7.92500        25.81700        15.44200
O           7.24900        26.94500        16.01500
H           7.77300        27.15400        16.84000
C           8.38600        21.66100        14.38900
O           7.81100        20.81100        13.38700
H           7.89800        19.84800        13.64300
C           7.96100        23.10400        14.60700
O           8.48700        23.50600        15.88100
C           7.85400        24.66900        16.43500
O           8.60500        24.94700        17.62600
C           8.12500        24.56700        18.92400
C           8.57500        23.18000        19.35400
O           8.11400        22.25000        18.36400
H           8.47300        22.57300        17.48800
C           8.07300        22.88600        20.75800
O           8.47900        21.61900        21.29700
H           8.03000        21.57800        22.19000
C           7.91900        26.95800        19.63100
O           8.11800        27.76700        18.46200
H           8.05100        28.75700        18.58300
C           8.58500        25.62200        19.91600
O           8.19100        25.25700        21.24600
C           8.52700        23.95200        21.74100
O           7.59200        24.03100        22.82700
C           8.16000        24.28400        24.12000
C           7.74800        25.67800        24.56500
O           8.18800        26.65000        23.60600
H           7.86000        26.43200        22.68700
C           8.15300        26.05100        25.98200
O           7.53700        27.26900        26.42600
H           7.79600        27.42500        27.37900
C           7.80600        21.85500        25.04200
O           7.55300        21.25500        23.76300
H           7.65900        20.26000        23.75500
C           7.50500        23.34300        25.11800
O           7.91800        23.66300        26.45400
C           7.73100        24.98500        26.97900
O           8.65800        25.01300        28.07400
C           7.95200        24.72800        29.29100
C           8.42500        23.34900        29.72300
O           7.90100        22.33300        28.85500
H           8.06000        22.54900        27.89200
C           8.00600        23.00200        31.14200
O           8.52300        21.74200        31.59400
H           8.12700        21.65000        32.50800
C           7.90600        27.14400        30.30000
O           8.17800        27.84600        29.07800
H           8.08700        28.83700        29.17100
C           8.42800        25.71700        30.34300
O           7.90100        25.41800        31.64300
C           8.37900        24.13800        32.08200
O           7.67600        23.89500        33.30900
C           8.19000        24.33400        34.57500
C           7.58800        25.64000        35.06600
O           7.86600        26.70500        34.14500
H           7.54600        26.31700        33.28100
C           7.93500        26.06000        36.48600
O           7.25200        27.26400        36.86500
H           7.47400        27.55500        37.79600
C           8.17800        21.90800        35.38400
O           7.53500        21.08200        34.40200
H           7.78200        20.11900        34.51200
C           7.65500        23.32200        35.57600
O           8.05900        23.65900        36.91100
C           7.59500        24.91500        37.42600
O           8.51700        25.03200        38.51900
C           7.98800        24.60200        39.78200
C           8.44700        23.25600        40.31700
O           8.13100        22.27300        39.32100
H           8.33100        22.66400        38.42300
C           8.05000        22.86900        -0.34200
O           8.74900        21.72900         0.17800
H           8.45700        21.50100         1.10600
C           7.41000        26.89800        40.65300
O           7.78400        27.68500        39.51300
H           7.88100        28.63900        39.79900
C           8.18500        25.61200        -1.17500
O           7.63800        25.24600         0.10000
C           8.27400        24.05400         0.58400
O           7.47000        23.87400         1.75900
C           3.67200        20.81000         0.26700
C           3.97400        19.43800        42.92000
O           3.67000        18.45100        41.92400
H           4.01600        18.79700        41.05100
C           3.11400        19.19400         2.07400
O           3.42500        17.87800         2.55500
H           3.13400        17.74700         3.50200
C           3.56000        23.28300         1.04700
O           4.17300        23.96300        -0.05800
H           3.86900        24.91600        -0.03400
C           3.95500        21.84600         1.34300
O           3.30200        21.48300         2.56800
C           3.53500        20.18900         3.14300
O           2.74200        20.29500         4.33500
C           3.52500        20.39400         5.53300