# freq=raman b3lyp/6-31+g(2d,p) geom=connectivity
300 9000.com
300 9000.com
C           8.59200         7.82500         3.02800
0 1
O           8.34300        10.25600         2.42400
H           8.03300         9.84700         1.56600
C           8.70400         9.62300         4.81000
O           8.32600        10.91000         5.31800
H           8.71500        11.06300         6.22600
C           8.29000         5.39100         3.87100
O           8.05400         4.70800         2.63100
H           8.15700         3.73300         2.82800
C           8.00100         6.87200         4.05500
O           8.35400         7.21900         5.40200
C           8.14200         8.58900         5.77200
O           8.91800         8.72800         6.97200
C           8.28400         8.41200         8.22000
C           8.75900         7.05500         8.71300
O           8.30500         6.00800         7.84400
H           8.39600         6.39800         6.92800
C           8.22900         6.78800        10.11200
O           8.69500         5.57400        10.71900
H           8.38600         5.43300        11.66000
C           7.92100        10.77100         8.98300
O           8.50800        11.40700         7.83800
H           8.16300        12.34300         7.77800
C           8.49900         9.41300         9.34400
O           7.86700         9.06700        10.58500
C           8.42200         7.87500        11.15800
O           7.66700         7.71600        12.36700
C           8.42700         7.97300        13.55700
C           8.10300         9.37100        14.05600
O           8.29300        10.42200        13.09800
H           7.92700        10.17300        12.20100
C           8.65000         9.73500        15.42700
O           7.99000        10.91200        15.91500
H           8.32700        11.01900        16.85100
C           8.37000         5.54300        14.34200
O           7.73200         4.85000        13.26000
H           7.57200         3.89100        13.49400
C           8.04500         6.99500        14.65500
O           8.62500         7.34200        15.92100
C           8.20800         8.63600        16.38000
O           8.96200         8.92800        17.56500
C           8.35900         8.59000        18.82200
C           8.94700         7.32800        19.43100
O           8.92800         6.21700        18.52400
H           9.11800         6.67000        17.65300
C           8.33500         6.83500        20.73200
O           9.07500         5.75900        21.32700
H           8.67300         5.54700        22.21700
C           8.25900        11.06400        19.44100
O           8.89000        11.73300        18.34000
H           8.62500        12.69500        18.41400
C           8.62700         9.65400        19.87400
O           7.88400         9.16400        21.00000
C           8.35900         8.00600        21.70100
O           7.56900         7.70600        22.86100
C           8.13900         8.04100        24.13500
C           7.48700         9.29400        24.69700
O           7.59200        10.31500        23.69400
H           7.21500         9.89200        22.86900
C           8.22500         9.68400        25.96700
O           7.66200        10.90000        26.48100
H           8.15600        11.15100        27.31300
C           8.12700         5.52600        24.80600
O           7.60800         4.85500        23.64900
H           7.90200         3.91100        23.80300
C           7.92900         6.98000        25.20300
O           8.66500         7.40400        26.35900
C           8.02600         8.54400        26.95200
O           8.88500         8.82800        28.06600
C           8.20700         8.42200        29.26300
C           8.89000         7.14300        29.71800
O           8.70900         6.13500        28.71300
H           9.14400         6.54500        27.91100
C           8.30200         6.65300        31.03200
O           8.91500         5.48700        31.59900
H           8.59900         5.19400        32.50100
C           7.71800        10.84700        29.99200
O           8.37300        11.60500        28.96400
H           8.12500        12.54500        29.19700
C           8.30800         9.49000        30.34000
O           7.82700         8.97200        31.58900
C           8.40300         7.75200        32.07700
O           7.64900         7.49100        33.27000
C           8.49700         7.71200        34.40600
C           8.04200         9.04900        34.96800
O           8.20800        10.10200        34.00700
H           8.18400         9.57500        33.15700
C           8.58800         9.44600        36.33000
O           7.77400        10.56300        36.71900
H           8.16800        10.95100        37.55200
C           8.73700         5.30200        35.18400
O           8.21300         4.62400        34.03300
H           8.51300         3.67800        34.16200
C           8.36900         6.72900        35.55800
O           8.99000         7.04300        36.81400
C           8.47300         8.28800        37.30700
O           9.12800         8.65200        38.53100
C           8.39800         8.29500        39.71400
C           8.83200         6.94600        40.26300
O           8.78800         5.95600        39.22400
H           8.98900         6.40900        38.35500
C           8.53500         6.50400        -0.38100
O           9.23600         5.34800         0.10000
H           8.69700         4.97400         0.85400
C           8.18300        10.69800        40.44500
O           8.63300        11.28000        39.21300
H           8.48700        12.26900        39.22600
C           8.65300         9.30000        -1.24400
O           8.12200         8.85800         0.01300
C           8.71600         7.67600         0.56900
O           7.93000         7.64000         1.76900
C           4.12600         4.21800         0.22200
C           4.34200         2.81400        42.82600
O           4.14800         1.89400        41.74200
H           4.34000         2.44400        40.92900
C           3.75000         2.51300         2.12500
O           4.13800         1.28900         2.76500
H           3.87700         1.13700         3.71800
C           4.38100         6.65800         1.04900
O           4.95000         7.22700        -0.13900
H           4.63100         8.17500        -0.14400
C           4.56500         5.17400         1.32000
O           3.90900         4.96400         2.57800
C           4.23900         3.64000         3.02100
O           3.62200         3.63000         4.31700
C           4.40100         3.78200         5.51300
C           4.01100         5.19000         5.93300
O           4.44300         6.13700         4.94500
H           4.12700         5.86300         4.03700
C           4.36600         5.58100         7.35800
O           3.88200         6.83300         7.86400
H           4.23900         7.05600         8.77200
C           4.23400         1.30600         6.34100
O           3.58200         0.79000         5.17200
H           3.72600        -0.19200         5.29600
C           4.08000         2.79200         6.62100
O           4.68900         3.24400         7.83900
C           4.05100         4.43900         8.31100
O           4.85500         4.54700         9.49500
C           4.17800         4.43400        10.75500
C           4.55300         3.16600        11.50400
O           4.80500         2.14400        10.52900
H           5.47600         2.45200         9.85400
C           3.72600         2.86800        12.74400
O           4.13500         1.54200        13.10900
H           3.97200         1.42400        14.08900
C           4.04200         6.83900        11.30800
O           4.58200         7.47200        10.13800
H           4.70800         8.41400        10.45100
C           4.51500         5.48200        11.80300
O           3.81400         5.29500        13.04100
C           4.19200         4.03100        13.60500
O           3.50700         3.91800        14.86100
C           4.24200         4.03000        16.08900
C           4.01900         5.44800        16.58900
O           4.01600         6.53000        15.64600
H           3.70500         6.14900        14.77500
C           4.87500         5.56500        17.83900
O           4.87600         6.94800        18.22300
H           4.57700         7.06300        19.17100
C           4.00300         1.55600        16.88300
O           3.84400         0.91700        15.60800
H           3.88500        -0.05600        15.83200
C           3.79900         3.03800        17.15100
O           4.47200         3.26400        18.39800
C           4.31100         4.60800        18.87600
O           4.87400         4.52000        20.19300
C           3.96300         4.45500        21.30000
C           4.04700         3.01400        21.77700
O           3.72600         2.02100        20.79300
H           4.22100         2.36500        19.99600
C           3.23900         2.81400        23.04800
O           3.23900         1.47100        23.55500
H           3.51000         1.42400        24.51600
C           3.94000         6.84300        22.10800
O           4.38200         7.51000        20.91700
H           4.24300         8.49400        21.03000
C           4.27500         5.40000        22.44900
O           3.60000         5.12700        23.68500
C           3.80400         3.76500        24.09000
O           3.19300         3.58100        25.37600
C           3.97100         3.88400        26.54300
C           3.61800         5.29500        26.98600
O           3.97500         6.31500        26.04100
H           3.84100         5.92200        25.13100
C           4.27300         5.61300        28.32100
O           3.90600         6.90300        28.83100
H           4.47500         7.02600        29.64400
C           4.21200         1.47300        27.18800
O           3.75300         0.88800        25.96100
H           3.92800        -0.09600        25.99700
C           3.68000         2.83500        27.60300
O           4.33400         3.20200        28.82700
C           4.06800         4.51200        29.34900
O           4.89400         4.66800        30.51100
C           4.35600         4.23500        31.76900
C           4.80300         2.92700        32.40100
O           4.40300         1.80400        31.60100
H           4.31700         2.17100        30.67500
C           4.23900         2.58100        33.76900
O           4.98600         1.48400        34.31500
H           4.68500         1.29200        35.24900
C           4.21300         6.77300        32.52400
O           4.70400         7.47800        31.37400
H           4.59000         8.46900        31.44100
C           4.59300         5.32700        32.79900
O           3.90800         5.01800        34.02200
C           4.49000         3.83500        34.58900
O           3.75600         3.66600        35.81000
C           4.51800         3.94900        36.99200
C           4.28800         5.34800        37.54100
O           4.49100         6.38200        36.56700
H           4.07700         6.02400        35.73100
C           5.04600         5.55600        38.84200
O           4.83500         6.89200        39.32200
H           4.93000         6.83700        40.31600
C           4.47900         1.41100        37.89100
O           4.06900         0.73900        36.69100
H           4.24200        -0.21500        36.93700
C           4.21600         2.90000        38.04900
O           4.82200         3.21800        39.31000
C           4.40000         4.51900        39.74600
O           4.87200         4.51600        41.10100
C           8.03500        16.18300         2.92700
C           7.51500        17.53300         3.39500
O           7.56700        18.51100         2.34700
H           7.25300        18.16600         1.46200
C           8.20100        17.77700         4.72900
O           7.53400        18.90800         5.30700
H           8.04700        19.24300         6.09700
C           8.47200        13.67800         3.57400
O           7.78900        12.79700         2.66900
H           8.17000        11.87400         2.73100
C           7.88000        15.03600         3.91200
O           8.54300        15.43800         5.11900
C           7.96500        16.62200         5.68900
O           8.76000        16.89100         6.85300
C           8.16900        16.48600         8.09700
C           8.67500        15.15200         8.62100
O           8.35300        14.18000         7.61500
H           8.49300        14.53200         6.68900
C           8.19100        14.79300        10.01600
O           8.87700        13.64400        10.53600
H           8.86000        13.52200        11.52800
C           8.07200        18.95000         8.90000
O           8.57800        19.63500         7.74500
H           8.38400        20.60600         7.88400
C           8.50400        17.51700         9.16300
O           7.83400        17.22400        10.39800
C           8.30600        15.98600        10.95000
O           7.57200        15.79600        12.16900
C           8.12400        16.11900        13.45300
C           7.48300        17.42800        13.88400
O           7.89500        18.44800        12.96300
H           7.44700        18.27200        12.08600
C           7.99400        17.83300        15.25700
O           7.05200        18.75000        15.83200
H           7.37500        19.10000        16.71200
C           8.62400        13.77900        14.32500
O           8.38400        13.04500        13.11600
H           8.41600        12.07200        13.34700
C           7.93000        15.10900        14.57200
O           8.52200        15.52000        15.81200
C           7.90500        16.72300        16.29100
O           8.68000        16.92500        17.48200
C           8.07400        16.60800        18.74300
C           8.55300        15.24300        19.21000
O           8.17100        14.24100        18.25700
H           8.57000        14.49800        17.37600
C           7.87500        14.96100        20.54100
O           8.30500        13.69500        21.06400
H           7.99900        13.60000        22.01100
C           7.69500        19.03700        19.46600
O           7.85200        19.53800        18.13100
H           7.54200        20.48800        18.13800
C           8.35900        17.70200        19.76000
O           7.71400        17.37500        20.99900
C           8.22800        16.11800        21.46100
O           7.38600        15.85900        22.59400
C           7.86700        16.20600        23.90100
C           7.29900        17.55400        24.31300
O           7.61000        18.55300        23.33000
H           7.42600        18.32100        22.37500
C           7.71100        17.90500        25.73300
O           6.99400        19.10400        26.06000
H           7.15400        19.33200        27.02000
C           8.00900        13.84700        24.78300
O           7.52300        13.04100        23.69900
H           7.85400        12.10700        23.83600
C           7.39000        15.22400        24.95900
O           7.89600        15.53700        26.26500
C           7.40200        16.80100        26.73200
O           8.20600        16.99200        27.90500
C           7.60300        16.59900        29.14700
C           8.25000        15.31900        29.65000
O           7.84700        14.28300        28.74300
H           7.86600        14.60000        27.79500
C           7.77000        14.85200        31.01400
O           8.37700        13.59500        31.34600
H           8.12000        13.45700        32.30200
C           7.36000        19.03300        29.91400
O           7.98800        19.79700        28.87500
H           7.99900        20.78800        29.00700
C           7.92700        17.65100        30.19500
O           7.59500        17.16700        31.50500
C           8.16300        15.94400        31.99500
O           7.48500        15.65600        33.22700
C           8.10300        16.05100        34.46000
C           7.36500        17.29500        34.92900
O           7.35200        18.40000        34.01300
H           7.07100        17.99900        33.14100
C           7.98700        17.75100        36.23800
O           7.57400        19.03600        36.72700
H           7.96100        19.11600        37.64500
C           8.35100        13.57900        35.26000
O           8.00700        12.84000        34.07900
H           8.29600        11.88300        34.07700
C           7.77100        14.96700        35.47300
O           8.19600        15.42600        36.76400
C           7.64200        16.66100        37.24100
O           8.33200        16.78900        38.49200
C           7.80000        16.34000        39.74700
C           8.37000        15.02300        40.24900
O           8.17100        14.00200        39.26100
H           8.25200        14.51400        38.40700
C           7.91300        14.61900        -0.42700
O           8.66900        13.62800         0.28500
H           8.19100        13.43200         1.14200
C           7.85200        18.80500        40.43600
O           8.37100        19.45700        39.26700
H           8.23300        20.44700        39.29900
C           8.14500        17.36000        -1.25100
O           7.55700        17.05100         0.02100
C           8.03800        15.79700         0.52600
O           7.32900        15.71000         1.77000
C           4.10800        12.31800         0.26400
C           4.57000        10.99100        42.90600
O           4.26700         9.98000        41.93400
H           4.33100        10.47400        41.06600
C           4.16900        10.59000         2.24800
O           4.93700         9.47600         2.72700
H           4.57800         9.39700         3.65700
C           3.79300        14.69600         1.13600
O           4.00900        15.39200        -0.10100
H           3.89000        16.38100        -0.02000
C           4.41300        13.32600         1.36000
O           3.93900        13.02300         2.68000
C           4.45000        11.77200         3.16200
O           3.76300        11.55900         4.40400
C           4.39700        11.96600         5.62500
C           3.88600        13.33200         6.05400
O           4.30500        14.29100         5.07200
H           3.99600        14.03600         4.15600
C           4.29400        13.70100         7.47100
O           3.71900        14.94900         7.88400
H           4.13400        15.26500         8.73700
C           4.42200         9.52800         6.48900
O           4.21100         8.82000         5.25900
H           4.47000         7.85900         5.35900
C           3.90700        10.94900         6.64300
O           4.36200        11.34200         7.94600
C           3.85900        12.59800         8.42200
O           4.77300        12.74500         9.51800
C           4.18600        12.50400        10.80600
C           4.83800        11.23200        11.32300
O           4.81800        10.11000        10.42900
H           4.77700        10.44700         9.48800
C           4.25400        10.82700        12.66700
O           4.43400         9.48200        13.13500
H           3.99500         9.33700        14.02100
C           4.04600        15.00500        11.45600
O           4.39600        15.72200        10.26400
H           4.13700        16.67600        10.41800
C           4.58600        13.61700        11.76100
O           4.07500        13.25100        13.05100
C           4.52800        12.00100        13.59200
O           3.61600        11.98000        14.70000
C           4.20400        12.14700        15.99900
C           3.92100        13.53000        16.56100
O           4.01000        14.59400        15.60200
H           3.85600        14.22400        14.68600
C           4.56000        13.75100        17.92300
O           4.13800        15.05800        18.33700
H           4.17000        15.19300        19.32700
C           4.08700         9.67500        16.64400
O           3.43100         9.03300        15.54100
H           3.73200         8.08000        15.54900
C           3.75500        11.11100        17.01600
O           4.35100        11.27800        18.31100
C           4.06300        12.60200        18.78500
O           4.64600        12.66700        20.09400
C           3.80000        12.47200        21.23600
C           3.94600        11.03600        21.71000
O           3.41200        10.19000        20.68100
H           3.63200        10.53800        19.76900
C           3.27600        10.77900        23.05000
O           3.65500         9.46400        23.48200
H           3.31700         9.38000        24.41900
C           3.71700        14.90200        22.06900
O           4.25500        15.60900        20.94200
H           4.08700        16.53400        21.28100
C           4.02500        13.44700        22.38100
O           3.23100        13.04500        23.50700
C           3.71800        11.81700        24.06800
O           2.98400        11.75400        25.29900
C           3.63900        12.07200        26.53600
C           3.28000        13.43500        27.10400
O           3.57700        14.47400        26.16000
H           3.25200        14.22100        25.24900
C           3.95400        13.78000        28.42200
O           3.57800        15.10000        28.84100
H           3.77000        15.23700        29.81300
C           3.98900         9.75500        27.42500
O           3.79600         8.94100        26.25900
H           4.10200         7.99300        26.34700
C           3.27200        11.08000        27.62800
O           3.96100        11.40800        28.84300
C           3.69000        12.68400        29.44100
O           4.45400        12.82800        30.64700
C           3.72600        12.49000        31.83600
C           4.09400        11.09200        32.30500
O           3.69000        10.11800        31.33200
H           4.02700        10.41700        30.43900
C           3.56000        10.81100        33.70100
O           4.00600         9.53200        34.17600
H           3.67800         9.40100        35.11200
C           3.71700        14.89900        32.64000
O           3.80700        15.67200        31.43500
H           3.56900        16.63000        31.60000
C           4.10600        13.46100        32.94300
O           3.51000        13.21700        34.22500
C           3.95200        11.92300        34.66000
O           3.25500        11.61700        35.87600
C           3.85800        12.00100        37.12100
C           3.45300        13.35600        37.67800
O           3.66300        14.42500        36.74400
H           3.49900        14.11900        35.80600
C           4.28500        13.66400        38.91200
O           4.09500        15.00600        39.38200
H           4.27400        15.03000        40.36600
C           4.26100         9.64400        37.97200
O           3.81800         8.84600        36.86500
H           4.18000         7.91400        36.85300
C           3.65100        11.00700        38.25200
O           4.34800        11.27400        39.47800
C           3.96700        12.58200        39.93100
O           4.77300        12.68500        41.11400
C           7.86200        24.17000         2.86900
C           7.42100        25.56300         3.28800
O           7.87600        26.58400         2.38800
H           7.83900        26.31500         1.42500
C           7.87700        25.90400         4.69700
O           7.43400        27.18300         5.17400
H           7.60000        27.22500         6.15900
C           7.89900        21.78800         3.67000
O           7.65700        21.10300         2.43200
H           7.76800        20.12300         2.59500
C           7.40700        23.19900         3.94500
O           8.10100        23.63300         5.12400
C           7.58200        24.82700         5.72800
O           8.38300        25.02800         6.90200
C           7.84900        24.59500         8.16200
C           8.45500        23.26300         8.57200
O           8.45600        22.27400         7.53200
H           8.53200        22.76300         6.66300
C           8.14600        22.80300         9.98800
O           8.63300        21.65200        10.69300
H           7.97800        21.55400        11.44200
C           7.84300        27.05900         8.96100
O           8.14300        27.82900         7.78900
H           8.36600        28.75700         8.08800
C           8.20300        25.60800         9.23800
O           7.59100        25.16700        10.45900
C           8.21900        23.97500        10.95300
O           7.40300        23.79700        12.12000
C           7.89100        24.33700        13.35700
C           7.27000        25.65800        13.77800
O           7.48700        26.60900        12.72500
H           7.28400        26.05500        11.91800
C           7.69000        26.06600        15.18100
O           7.10100        27.29600        15.62800
H           7.61100        27.50800        16.46200
C           8.33400        21.96400        14.29200
O           7.70100        21.09400        13.34300
H           8.00900        20.14300        13.33800
C           7.64100        23.30800        14.44800
O           8.20600        23.74300        15.69300
C           7.47300        24.89800        16.12900
O           8.19400        25.20100        17.33200
C           7.63300        24.76800        18.58000
C           8.12100        23.38600        18.98500
O           7.56800        22.46600        18.03200
H           7.70400        22.94400        17.16400
C           7.82700        22.92400        20.40300
O           8.71600        21.85600        20.76000
H           8.60800        21.45100        21.66800
C           7.59900        27.15900        19.58000
O           7.99500        27.85000        18.38600
H           7.88100        28.82300        18.58300
C           8.19200        25.76000        19.58700
O           7.77400        25.40800        20.91400
C           8.14900        24.08600        21.32700
O           7.45500        23.89600        22.56900
C           7.97200        24.34400        23.83100
C           7.29500        25.62200        24.29800
O           7.47800        26.73900        23.41600
H           7.58600        26.42700        22.47200
C           7.76700        26.12100        25.65400
O           7.05500        27.28100        26.11000
H           7.40000        27.55600        27.00800
C           8.20600        21.97800        24.69100
O           7.93800        21.21100        23.50800
H           7.86800        20.22600        23.66200
C           7.66700        23.37400        24.96100
O           8.23600        23.81100        26.20400
C           7.63000        25.01800        26.69000
O           8.44500        25.26800        27.84500
C           7.91100        24.82500        29.10100
C           8.51500        23.51400        29.57800
O           8.22100        22.43800        28.67600
H           8.59100        22.79300        27.81800
C           8.05800        23.16900        30.98600
O           8.52600        21.91900        31.51400
H           8.15300        21.76000        32.42900
C           7.47700        27.27800        29.86300
O           7.66000        28.03700        28.65900
H           7.80900        28.94400        29.05400
C           8.11500        25.92500        30.13000
O           7.55500        25.49800        31.38000
C           8.19800        24.34400        31.94000
O           7.51600        24.01700        33.16000
C           8.16200        24.32200        34.40500
C           7.57200        25.59000        35.00100
O           7.49200        26.68900        34.08200
H           7.29300        26.22600        33.21800
C           8.32500        25.93400        36.27500
O           7.98100        27.24700        36.74100
H           8.27100        27.38900        37.68800
C           8.12200        21.80300        35.14200
O           7.57300        21.05500        34.04800
H           7.57100        20.07100        34.22600
C           7.78700        23.25800        35.42400
O           8.36200        23.52300        36.71100
C           7.94300        24.80100        37.21400
O           8.75700        24.83800        38.39500
C           8.02200        24.62000        39.60900
C           8.47500        23.30500        40.22200
O           8.21900        22.23000        39.30600
H           8.50100        22.45300        38.37300
C           7.94200        22.97200        -0.46100
O           8.52300        21.79800         0.12700
H           8.25800        21.71400         1.08700
C           7.85600        27.04000        40.42100
O           8.10600        27.83300        39.25100
H           8.07800        28.77500        39.58400
C           8.38200        25.63500        -1.38900
O           7.84800        25.41000        -0.07600
C           8.22200        24.13800         0.47200
O           7.32400        23.90200         1.56600
C           3.67000        20.46700         0.35300
C           4.06600        19.05500        42.81100
O           3.56900        18.13200        41.83000
H           3.66600        18.57000        40.93700
C           3.60300        18.71500         2.15000
O           4.11900        17.44300         2.57200
H           4.03700        17.33600         3.56200
C           3.92400        22.97500         1.17800
O           4.52300        23.64700         0.06100
H           4.26500        24.61300         0.09000
C           4.14000        21.48400         1.38000
O           3.62500        21.03300         2.64100
C           4.06400        19.76400         3.14900
O           3.29600        19.74900         4.36100
C           4.01100        20.04600         5.56900
C           3.52100        21.40000         6.05500