# freq=raman b3lyp/6-31+g(2d,p) geom=connectivity

350 7102/7102.com

0 1
C           7.98000         7.91500         3.03100
C           7.31300         9.12800         3.66100
O           6.97400        10.21600         2.78900
H           6.75500         9.74300         1.93600
C           8.11100         9.54800         4.88500
O           7.67300        10.79300         5.44600
H           8.01100        11.06100         6.34900
C           8.19400         5.44500         3.75400
O           7.71700         4.67200         2.64300
H           8.09500         3.75500         2.76600
C           7.73700         6.85400         4.09200
O           8.41600         7.23900         5.29600
C           8.00100         8.45500         5.93500
O           8.95900         8.61100         6.99200
C           8.36900         8.25200         8.25000
C           9.03900         6.96400         8.69800
O           8.88700         6.04300         7.60900
H           9.23300         6.32400         6.71300
C           8.39300         6.48300         9.98700
O           8.90000         5.26900        10.56100
H           8.61100         5.14400        11.51000
C           8.03200        10.76400         8.99200
O           8.58500        11.39300         7.82700
H           8.69300        12.36300         8.04200
C           8.44700         9.33700         9.31100
O           7.79500         8.70300        10.42100
C           8.43300         7.57700        11.04200
O           7.73200         7.46700        12.29000
C           8.39000         7.88100        13.49600
C           7.77300         9.20800        13.90600
O           8.18900        10.20300        12.95800
H           7.86300         9.81100        12.09800
C           8.24800         9.52900        15.31400
O           7.48300        10.61300        15.86100
H           7.84000        10.92800        16.74100
C           9.08300         5.54100        14.23100
O           8.52200         4.67100        13.23700
H           8.48800         3.73500        13.58600
C           8.30900         6.80500        14.56600
O           8.83500         7.22000        15.83600
C           8.26200         8.42600        16.36000
O           8.98500         8.73600        17.56000
C           8.33500         8.31600        18.76800
C           8.94000         7.03400        19.31600
O           8.81400         6.07100        18.26000
H           8.90100         6.40700        17.32200
C           8.42700         6.60000        20.68000
O           9.13700         5.46600        21.19800
H           8.69900         5.29800        22.08000
C           8.13700        10.80000        19.49400
O           8.23900        11.46500        18.22700
H           8.14700        12.43500        18.45300
C           8.65800         9.40100        19.78300
O           8.24300         9.05700        21.11300
C           8.63200         7.77400        21.62300
O           7.88400         7.52900        22.82300
C           8.48000         7.84500        24.08900
C           8.03900         9.22900        24.54000
O           8.15300        10.34600        23.64700
H           7.87400        10.07600        22.72500
C           8.70600         9.47600        25.88300
O           8.11600        10.61900        26.51900
H           8.55500        10.58100        27.41700
C           8.74300         5.41400        24.73700
O           8.10500         4.71700        23.65700
H           8.40000         3.76500        23.73100
C           8.20500         6.77800        25.13600
O           8.91300         7.14200        26.33000
C           8.41200         8.36800        26.88200
O           8.87000         8.61700        28.21900
C           8.20800         8.25000        29.43800
C           8.55100         6.84800        29.91600
O           8.55800         5.92200        28.81900
H           8.98300         6.36500        28.03100
C           7.97800         6.67900        31.31300
O           8.44700         5.42200        31.82200
H           7.97000         5.34000        32.69700
C           8.19900        10.83100        30.12600
O           9.02300        11.43300        29.11800
H           8.79800        12.39500        29.26900
C           8.51000         9.37200        30.41800
O           7.87200         9.04600        31.66100
C           8.35800         7.82500        32.23600
O           7.56300         7.56400        33.40200
C           8.09400         7.92400        34.68500
C           7.43300         9.24300        35.05000
O           7.84800        10.23500        34.10000
H           7.51900         9.89600        33.21800
C           7.91600         9.54100        36.46000
O           7.11100        10.63400        36.92600
H           7.51900        10.93700        37.78700
C           8.27100         5.46400        35.42300
O           7.78500         4.87200        34.20900
H           8.08500         3.91900        34.16800
C           7.80300         6.87400        35.74500
O           8.43500         7.22700        36.98400
C           7.81600         8.42100        37.48300
O           8.63800         8.71900        38.62100
C           8.01300         8.40600        39.87300
C           8.59300         7.07700        40.32800
O           8.46400         5.92200        39.48600
H           8.78900         6.35600        38.64500
C           7.97200         6.75100        -0.37000
O           8.32300         5.46800         0.16900
H           7.79900         5.39300         1.01700
C           7.63500        10.77400        40.63200
O           8.02000        11.33200        39.36700
H           8.03000        12.32200        39.50100
C           8.27300         9.43100        -1.09400
O           7.60500         9.14400         0.14300
C           8.15400         7.90100         0.60700
O           7.32100         7.75500         1.76600
C           3.83300         4.32000         0.37500
C           4.40500         3.02600         0.93200
O           4.44000         1.96600        -0.03500
H           4.46900         2.53900        -0.85400
C           3.99600         2.65700         2.34900
O           4.61200         1.47700         2.88500
H           4.27000         1.26500         3.80100
C           3.46700         6.73900         1.09600
O           3.85100         7.60100         0.01500
H           3.60200         8.51400         0.33700
C           4.09700         5.39300         1.41800
O           3.57600         4.98000         2.69000
C           4.25700         3.85000         3.25400
O           3.54700         3.59000         4.47400
C           4.18400         3.98700         5.69700
C           3.78600         5.37900         6.15900
O           4.25300         6.33400         5.19500
H           3.95900         6.06400         4.27800
C           4.46400         5.61100         7.50000
O           3.98900         6.80200         8.14400
H           4.42400         6.83600         9.04400
C           4.31400         1.45600         6.44100
O           3.84700         0.62600         5.36700
H           4.07000        -0.28800         5.70500
C           3.91700         2.89600         6.72200
O           4.59000         3.22000         7.94700
C           4.17300         4.48500         8.47900
O           4.94000         4.58100         9.68800
C           4.29400         4.19800        10.91100
C           4.34400         2.75900        11.39800
O           3.80300         1.92800        10.36100
H           4.04600         2.30200         9.46600
C           3.70700         2.52900        12.75900
O           4.09100         1.24000        13.26000
H           3.90000         1.19300        14.24000
C           4.14100         6.40400        11.72900
O           4.46000         7.29100        10.64700
H           4.04900         8.19200        10.78400
C           4.81300         5.07600        12.03800
O           4.05200         4.86200        13.23600
C           4.29200         3.53700        13.73400
O           3.55900         3.39800        14.96000
C           4.16500         3.81300        16.19400
C           3.76800         5.21000        16.64100
O           3.90800         6.27300        15.68700
H           3.68000         5.95300        14.76800
C           4.62700         5.46900        17.86800
O           4.84800         6.77700        18.41600
H           4.94800         6.83800        19.40900
C           4.39000         1.43800        16.80800
O           3.50700         0.77500        15.89100
H           3.52500        -0.19300        16.14100
C           3.87400         2.78800        17.27800
O           4.49800         3.12200        18.52700
C           4.13000         4.46000        18.89100
O           4.64200         4.77300        20.19500
C           4.05100         4.42000        21.45400
C           4.34000         2.99700        21.90200
O           3.95500         2.03900        20.90500
H           4.23600         2.34400        19.99500
C           3.75000         2.60900        23.24800
O           4.26400         1.33600        23.66700
H           4.00200         1.22700        24.62600
C           4.15900         6.74500        22.31800
O           4.54500         7.47600        21.14600
H           4.28700         8.44100        21.20300
C           4.55800         5.30300        22.58300
O           3.88400         5.00900        23.81400
C           4.18900         3.67300        24.24000
O           3.45300         3.50000        25.46000
C           4.23400         3.79100        26.62800
C           3.83300         5.17200        27.12000
O           4.05000         6.20100        26.14300
H           3.78400         5.75100        25.29100
C           4.19800         5.61300        28.52800
O           3.60900         6.86500        28.90800
H           3.98900         7.07900        29.80800
C           4.11500         1.40800        27.52600
O           3.49500         0.82400        26.37100
H           3.71800        -0.14900        26.42500
C           3.77900         2.87300        27.75100
O           4.40800         3.21100        28.99600
C           3.96700         4.47600        29.51000
O           4.81900         4.46500        30.66500
C           4.16600         4.17800        31.91100
C           4.61300         2.80400        32.38500
O           4.12600         1.83800        31.44200
H           4.15500         2.20100        30.51100
C           4.05700         2.56300        33.77800
O           4.45200         1.33500        34.40700
H           3.80900         1.25500        35.16900
C           4.04700         6.68500        32.61400
O           4.36000         7.40000        31.41000
H           3.84300         8.24300        31.55900
C           4.34900         5.24100        32.98200
O           3.54200         4.85400        34.10300
C           4.18000         3.73600        34.73700
O           3.48900         3.60100        35.98800
C           4.13000         3.82400        37.25200
C           3.79500         5.25600        37.63600
O           4.14100         6.31000        36.72600
H           4.05600         6.03000        35.77000
C           4.18700         5.58700        39.06700
O           3.56800         6.82000        39.46000
H           3.70200         7.01800        40.43100
C           3.94500         1.42900        38.01800
O           3.25300         0.71700        36.98200
H           3.67700        -0.18900        36.99400
C           3.57900         2.87600        38.30500
O           4.14400         3.23900        39.57300
C           3.76200         4.52900        40.07100
O           4.57200         4.68200        41.24500
C           7.99400        15.95800         3.13000
C           7.45600        17.29900         3.60200
O           7.87000        18.26500         2.62400
H           7.50400        17.95700         1.74600
C           7.97400        17.73900         4.96200
O           7.43500        18.93400         5.54500
H           7.83300        19.05700         6.45400
C           7.95400        13.48900         3.94500
O           7.59500        12.87600         2.69800
H           7.90200        11.92500         2.71000
C           7.57100        14.94100         4.17700
O           8.14000        15.31400         5.44100
C           7.73300        16.59800         5.93600
O           8.61300        16.64600         7.06800
C           8.01300        16.32600         8.33100
C           8.57000        15.04900         8.93900
O           8.49200        14.10800         7.85800
H           8.42800        14.60100         6.99100
C           8.02200        14.67000        10.30600
O           8.77000        13.64000        10.96800
H           8.40100        13.34500        11.84900
C           8.49800        18.82300         8.86900
O           7.53100        19.54100         8.09000
H           7.48400        20.47400         8.44700
C           8.27900        17.40400         9.36800
O           7.45100        17.07300        10.49300
C           7.98100        15.92200        11.16700
O           7.18400        15.77600        12.35100
C           7.92800        16.07100        13.54300
C           7.46600        17.38900        14.14100
O           7.74600        18.42900        13.19300
H           7.38700        18.08700        12.32400
C           8.08100        17.76200        15.48000
O           7.59800        19.00000        16.02100
H           7.93200        19.04800        16.96200
C           7.95300        13.55400        14.37600
O           7.76700        12.67500        13.25700
H           8.06600        11.75400        13.50700
C           7.50100        14.99700        14.53100
O           8.05600        15.27500        15.82400
C           7.79200        16.57100        16.37900
O           8.53100        16.74300        17.59700
C           7.89400        16.47300        18.85400
C           8.39900        15.15600        19.42100
O           8.12000        14.14000        18.44700
H           8.32400        14.45800        17.52000
C           7.88300        14.74900        20.79200
O           8.33800        13.47600        21.27500
H           7.86400        13.25800        22.12800
C           7.61600        18.86900        19.76200
O           8.30500        19.60000        18.73700
H           8.56100        20.45500        19.19000
C           8.22800        17.48900        19.93500
O           7.75000        17.14100        21.24200
C           8.16200        15.87400        21.77600
O           7.35000        15.68800        22.94400
C           8.01300        16.08500        24.15300
C           7.52200        17.44300        24.62900
O           7.96400        18.46100        23.71900
H           7.69400        18.08300        22.83300
C           8.05100        17.87000        25.98800
O           7.34200        18.96800        26.58100
H           7.80600        19.10900        27.45600
C           8.52500        13.72600        25.15000
O           7.88000        12.90300        24.16700
H           7.90000        11.98000        24.55200
C           7.83700        15.07600        25.27600
O           8.50000        15.51400        26.47000
C           7.87700        16.71100        26.95600
O           8.73300        17.07100        28.05000
C           8.39600        16.61900        29.36900
C           9.03300        15.30800        29.79900
O           8.65100        14.25600        28.90100
H           8.92900        14.54700        27.98500
C           8.52500        14.98300        31.19400
O           9.11300        13.80800        31.77100
H           8.51000        13.67000        32.55700
C           8.07300        19.07300        30.03000
O           8.45200        19.75400        28.82500
H           8.40500        20.73800        28.99600
C           8.70400        17.73000        30.36000
O           8.19100        17.41300        31.66200
C           8.62800        16.14400        32.17000
O           7.73200        15.87900        33.25900
C           8.24500        16.39800        34.49500
C           7.51300        17.61200        35.04300
O           7.64000        18.67400        34.08700
H           7.75100        18.26900        33.18000
C           7.86100        18.04500        36.45800
O           7.05900        19.12600        36.95500
H           7.24900        19.28500        37.92400
C           8.54100        13.91300        35.24200
O           7.93300        13.08500        34.24000
H           7.98600        12.09700        34.38000
C           8.01400        15.30900        35.53000
O           8.46100        15.70400        36.83500
C           7.70600        16.81600        37.33900
O           8.28500        17.18800        38.59800
C           7.79800        16.65600        39.83900
C           8.25300        15.26500        40.24700
O           8.10900        14.29800        39.19600
H           8.35300        14.77500        38.35100
C           7.91300        14.87100        -0.37400
O           8.57600        13.68900         0.09900
H           8.02600        13.59500         0.92900
C           7.54400        19.01500        40.80500
O           7.54800        19.76300        39.58000
H           7.41800        20.75100        39.65200
C           8.15700        17.62800        -1.10800
O           7.68300        17.21800         0.18300
C           8.32000        15.99200         0.56900
O           7.59800        15.70200         1.77500
C           3.86900        12.60900         0.33700
C           4.04800        11.16600        42.81500
O           3.46100        10.31000        41.82500
H           3.73800        10.58200        40.90300
C           3.33800        10.89200         2.08500
O           3.59700         9.55000         2.52300
H           3.43600         9.60000         3.50900
C           3.78900        14.82900         1.10800
O           4.66100        15.62800         0.29500
H           4.33500        16.57000         0.21500
C           4.40700        13.48500         1.45700
O           3.81000        13.18900         2.72700
C           3.92900        11.81800         3.13500
O           3.24600        11.86700         4.39600
C           4.02300        12.05500         5.58800
C           3.88300        13.48300         6.09300
O           4.17700        14.48000         5.10300
H           4.01900        14.12400         4.18200
C           4.45300        13.84200         7.45500
O           4.25500        15.16700         7.97100
H           4.25500        15.10100         8.96800
C           4.07500         9.69400         6.38500
O           3.76900         9.04800         5.14100
H           4.03400         8.10200         5.32600
C           3.61500        11.10700         6.70400
O           4.23200        11.50800         7.93700
C           3.90000        12.81500         8.42900
O           4.52100        12.68000         9.71600
C           3.77200        12.45500        10.91900
C           4.09100        11.01700        11.29700
O           3.93000        10.13000        10.18100
H           4.22900        10.60200         9.35200
C           3.55800        10.63100        12.66700
O           4.01100         9.32700        13.06100
H           3.61200         9.19500        13.96800
C           3.75200        14.82400        11.87800
O           3.89000        15.42200        10.58100
H           3.57800        16.37100        10.62500
C           4.28700        13.40600        11.98700
O           3.72400        12.97100        13.23300
C           4.01700        11.64600        13.70100
O           3.32400        11.77100        14.95100
C           4.11800        11.84500        16.14400
C           3.93700        13.24300        16.71500
O           4.43400        14.19600        15.76400
H           4.00200        13.95600        14.89500
C           4.68200        13.51000        18.01300
O           4.30100        14.81800        18.46200
H           4.52600        14.86900        19.43500
C           4.09600         9.56700        16.85200
O           3.33300         9.02300        15.76500
H           3.38000         8.02900        15.86600
C           3.63700        10.95200        17.27600
O           4.33700        11.06400        18.52400
C           4.20700        12.42400        18.96400
O           4.75500        12.62800        20.27500
C           4.05800        12.30900        21.48800
C           4.46100        10.91900        21.95400
O           3.92300         9.96100        21.03200
H           4.23500        10.16600        20.10400
C           3.80400        10.62800        23.29400
O           4.31100         9.38900        23.81000
H           4.00700         9.22800        24.74900
C           3.95700        14.71100        22.30900
O           4.50000        15.47900        21.22500
H           4.35300        16.45100        21.40700
C           4.47900        13.30500        22.55700
O           3.76700        12.94800        23.75100
C           4.21400        11.69700        24.29300
O           3.50100        11.77100        25.53600
C           4.28800        11.95300        26.72200
C           4.06900        13.38200        27.19200
O           4.33400        14.37300        26.18800
H           4.14400        13.89800        25.32900
C           4.62400        13.59900        28.59000
O           4.53400        14.95300        29.05600
H           4.79500        14.96500        30.02100
C           4.10700         9.66200        27.47000
O           3.72500         8.83800        26.36000
H           3.88700         7.85800        26.47300
C           3.59800        11.06800        27.74700
O           4.12400        11.25900        29.06800
C           3.92400        12.61000        29.50900
O           4.48100        12.70700        30.82800
C           3.62500        12.48800        31.95900
C           3.84700        11.08700        32.50500
O           3.56400        10.03300        31.57300
H           3.76100        10.39200        30.66100
C           3.11200        10.98400        33.83100
O           3.29100         9.66800        34.37500
H           3.22700         9.71000        35.37200
C           3.97700        14.98300        32.61400
O           4.89600        15.40400        31.59500
H           4.50700        16.31700        31.47200
C           4.11700        13.51200        32.96900
O           3.42400        13.30700        34.20900
C           3.59600        12.02400        34.82900
O           2.88600        11.93800        36.07400
C           3.71000        12.19500        37.22000
C           3.67600        13.65800        37.63300
O           4.00400        14.62000        36.62100
H           3.78600        14.23500        35.72400
C           4.42900        13.91800        38.92800
O           4.06800        15.15700        39.55400
H           4.25500        15.24800        40.53300
C           3.78000         9.81100        38.09400
O           3.30800         9.07600        36.95600
H           3.59500         8.11800        36.96900
C           3.34500        11.24500        38.34900
O           4.13900        11.50700        39.51500
C           3.96900        12.87100        39.92900
O           4.63600        12.87600        41.20000
C           8.04400        24.04100         3.05900
C           7.56400        25.42000         3.48000
O           7.74200        26.43300         2.47900
H           7.74500        26.02900         1.56500
C           8.11200        25.81000         4.84300
O           7.53400        26.97000         5.46000
H           7.80600        27.12300         6.41000
C           8.02900        21.62200         3.81300
O           7.73700        20.89500         2.61100
H           8.03000        19.94200         2.69200
C           7.63700        23.05400         4.14000
O           8.30800        23.47200         5.33700
C           7.81100        24.71600         5.85400
O           8.48300        25.11600         7.05700
C           7.95800        24.59700         8.28800
C           8.44300        23.22600         8.73000
O           8.07900        22.23700         7.75600
H           8.41400        22.50300         6.85200
C           7.87400        22.86600        10.09300
O           8.34400        21.58000        10.52200
H           7.87300        21.35400        11.37500
C           7.67500        26.95800         9.06400
O           8.14900        27.65500         7.90300
H           8.19300        28.62700         8.13500
C           8.20900        25.58000         9.42000
O           7.55000        25.22300        10.64300
C           8.15600        23.99500        11.07200
O           7.37500        23.76300        12.25300
C           8.01100        24.20200        13.46200
C           7.39400        25.49800        13.96400
O           7.80600        26.47000        12.99300
H           7.65400        26.06500        12.09100
C           8.02900        25.94700        15.27000
O           7.33800        27.08700        15.80000
H           7.47300        27.25400        16.77700
C           8.44500        21.90800        14.17500
O           7.77800        21.01600        13.27000
H           7.84800        20.04300        13.49000
C           7.84100        23.23000        14.61900
O           8.52400        23.68200        15.79700
C           7.92600        24.87000        16.33800
O           8.70000        25.22900        17.49200
C           8.08500        24.77700        18.70700
C           8.73900        23.51200        19.24000
O           8.83100        22.43500        18.29600
H           9.08100        22.90800        17.45100
C           8.23200        22.99300        20.57500
O           8.85200        21.83000        21.14200
H           8.42300        21.75000        22.04200
C           7.40400        27.07100        19.51500
O           7.77700        27.73700        18.29900
H           7.65400        28.72500        18.39200
C           8.20500        25.81400        19.81200
O           7.64100        25.35300        21.04900
C           8.33000        24.18400        21.51500
O           7.63200        23.84000        22.72100
C           8.10800        24.36700        23.96800
C           7.68400        25.78400        24.31700
O           8.22600        26.83300        23.50100
H           7.98300        26.54500        22.57400
C           7.94900        26.13100        25.77300
O           7.21000        27.27000        26.23800
H           7.69400        27.62300        27.04000
C           8.12600        21.87300        24.81700
O           7.92500        21.26600        23.53300
H           8.07900        20.28700        23.66300
C           7.74500        23.33100        25.01800
O           8.21500        23.81900        26.28300
C           7.60400        25.02700        26.75800
O           8.33300        25.19000        27.98400
C           7.76400        24.85600        29.25800
C           8.48600        23.58800        29.68500
O           8.25000        22.53200        28.74200
H           8.34700        23.02300        27.87700
C           8.01000        23.17300        31.06700
O           8.76800        22.04500        31.52700
H           8.53700        21.83100        32.47600
C           7.55800        27.38100        29.83200
O           8.13300        28.08600        28.72200
H           8.14600        29.08300        28.80100
C           8.08000        26.00300        30.20400
O           7.58700        25.54800        31.47300
C           8.16200        24.35100        32.01600
O           7.36600        24.15700        33.19500
C           8.01800        24.41400        34.44700
C           7.59200        25.75600        35.02000
O           7.90700        26.83300        34.12600
H           7.46600        26.59200        33.26100
C           8.04800        26.07100        36.43600
O           7.46200        27.24800        37.01100
H           7.66600        27.28200        37.98900
C           8.59900        22.09800        35.14800
O           8.20600        21.41600        33.94800
H           7.84500        20.52400        34.22200
C           7.83700        23.35800        35.52600
O           8.41200        23.71300        36.79200
C           7.79200        24.88200        37.34700
O           8.38900        25.09000        38.63500
C           7.88600        24.66500        39.91000
C           8.43800        23.27700        40.19200
O           7.78500        22.36800        39.29400
H           8.15700        22.41200        38.36700
C           7.92100        22.91300        -0.47300
O           8.33500        21.64800         0.06300
H           7.72400        21.44300         0.82700
C           7.97300        27.05500        40.83400
O           8.12300        27.66000        39.54100
H           7.95300        28.62600        39.73600
C           8.45100        25.61300        -1.10700
O           7.80200        25.20400         0.10600
C           8.17800        23.92300         0.63300
O           7.39000        23.74000         1.81800
C           3.68500        20.56600         0.37600
C           4.12600        19.18700        42.87600
O           3.91100        18.17900        41.87700
H           4.29000        18.56600        41.03600
C           3.51500        18.95800         2.20200
O           3.65200        17.62100         2.70400
H           3.89400        17.70400         3.67100
C           3.81700        22.98500         1.04700
O           4.19900        23.68800        -0.14300
H           4.13600        24.67200         0.02600
C           4.26100        21.56600         1.36400
O           3.81800        21.28300         2.70000
C           4.19500        19.96300         3.11700
O           3.30600        19.94900         4.24300
C           4.04000        20.11900         5.46400