# freq=raman b3lyp/6-31+g(2d,p) geom=connectivity

550 9528/9528.com

0 1
 O                  9.48300000    7.77000000   11.16800000
 C                 10.32900000    7.62400000   12.31800000
 C                 10.49000000    9.02600000   12.88400000
 O                 10.99800000   10.06700000   12.03800000
 H                 10.60500000    9.83900000   11.14800000
 C                 11.24500000    8.77900000   14.18000000
 O                 11.89400000    9.87700000   14.83900000
 H                 12.61900000   10.37100000   14.36000000
 C                  9.66800000    5.44900000   12.76600000
 O                  9.04400000    4.94300000   11.57700000
 H                  9.12900000    5.45800000   10.72400000
 C                  9.49800000    6.85000000   13.32900000
 O                  9.77400000    6.88400000   14.73700000
 C                 10.30600000    8.13700000   15.18900000
 O                 10.90100000    7.94500000   16.48100000
 C                 10.21700000    8.05700000   17.73700000
 C                  9.39700000    6.83200000   18.10600000
 O                  8.18100000    6.71100000   17.35400000
 H                  8.37700000    6.89900000   16.39200000
 C                  9.10400000    6.63800000   19.58500000
 O                  8.75000000    5.25300000   19.71600000
 H                  7.94600000    5.18500000   19.12400000
 C                 11.82500000    9.66100000   18.77100000
 O                 12.77000000   10.03100000   19.78500000
 H                 13.50600000    9.35800000   19.70900000
 C                 11.23400000    8.26200000   18.84800000
 O                 10.67700000    8.17600000   20.16800000
 C                 10.23000000    6.87500000   20.57700000
 O                  9.76200000    7.26900000   21.87500000
 H                 10.02546544    7.86975425   10.38226446
 H                  9.38125169    4.78213813   13.55211109
 H                 10.72010999    5.31872623   12.62110928
 H                  8.47578526    7.13673925   13.19574225
 H                 11.26282833    7.15224972   12.09368700
 H                  9.50839787    9.34307152   13.16829370
 H                 12.00619454    8.06029084   13.95877609
 H                  9.47924143    8.80396518   15.31756017
 H                 10.51323927    7.44260505   22.44692730
 H                 11.01616928   10.36061256   18.80614449
 H                 12.30775409    9.76078548   17.82132040
 H                 12.01787873    7.54070040   18.74719816
 H                  9.56870996    8.90749277   17.70119397
 H                  9.99712564    5.99326508   17.82091589
 H                  8.26421955    7.24238283   19.85774564
 H                 11.00076196    6.13282754   20.57945889

 1 2 1.0 30 1.0
 2 3 1.0 12 1.0 34 1.0
 3 4 1.0 6 1.0 35 1.0
 4 5 1.0
 5
 6 7 1.0 14 1.0 36 1.0
 7 8 1.0
 8
 9 10 1.0 12 1.0 31 1.0 32 1.0
 10 11 1.0
 11
 12 13 1.0 33 1.0
 13 14 1.0
 14 15 1.0 37 1.0
 15 16 1.0
 16 17 1.0 26 1.0 42 1.0
 17 18 1.0 20 1.0 43 1.0
 18 19 1.0
 19
 20 21 1.0 28 1.0 44 1.0
 21 22 1.0
 22
 23 24 1.0 26 1.0 39 1.0 40 1.0
 24 25 1.0
 25
 26 27 1.0 41 1.0
 27 28 1.0
 28 29 1.0 45 1.0
 29 38 1.0
 30
 31
 32
 33
 34
 35
 36
 37
 38
 39
 40
 41
 42
 43
 44
 45

