# freq=raman b3lyp/6-31+g(2d,p) geom=connectivity

350 9940/9940.com

0 1
C           8.33900         7.95200         3.12500
C           7.86100         9.28600         3.67500
O           8.06100        10.27800         2.65800
H           7.91500         9.91300         1.73800
C           8.34500         9.77400         5.03100
O           7.60400        10.88500         5.55500
H           7.76300        11.04800         6.52800
C           8.66400         5.55600         3.94700
O           8.35900         4.73700         2.80900
H           8.56800         3.79800         3.08400
C           8.00100         6.90500         4.17300
O           8.56100         7.29700         5.43500
C           8.15800         8.57600         5.94700
O           8.88600         8.53200         7.18300
C           8.19800         8.14000         8.37900
C           8.65700         6.75800         8.81600
O           8.33400         5.87300         7.73400
H           8.79400         6.32900         6.97200
C           7.98200         6.42900        10.13800
O           8.46700         5.18200        10.65600
H           8.27200         5.27400        11.63200
C           8.24700        10.57500         9.31900
O           8.25900        11.29600         8.07800
H           7.92400        12.20100         8.34200
C           8.56900         9.10100         9.49700
O           8.00900         8.86000        10.79600
C           8.32200         7.50700        11.15500
O           7.50500         7.34800        12.32400
C           8.14100         7.68300        13.56600
C           7.58900         9.01200        14.05500
O           7.78200        10.12600        13.17200
H           7.52000         9.86800        12.24200
C           8.02500         9.44000        15.44700
O           7.49400        10.67100        15.95800
H           8.04300        11.10300        16.67400
C           8.12300         5.26900        14.41200
O           7.80600         4.53900        13.21800
H           7.96800         3.58300        13.46500
C           7.72500         6.71400        14.66100
O           8.39800         7.11300        15.86500
C           7.79700         8.29300        16.41700
O           8.54800         8.46100        17.62900
C           7.86200         8.23400        18.86800
C           8.40100         6.91900        19.40700
O           8.33400         5.86800        18.43300
H           8.62600         6.29400        17.57600
C           7.85500         6.56300        20.78000
O           8.49600         5.42800        21.38100
H           8.10100         5.15700        22.25900
C           7.78100        10.75700        19.64500
O           8.37600        11.50200        18.57200
H           8.33900        12.48900        18.72900
C           8.19800         9.31400        19.88300
O           7.58600         9.09400        21.16300
C           7.98900         7.80400        21.64600
O           7.25500         7.70400        22.87600
C           7.99900         7.93700        24.08100
C           7.60500         9.27500        24.68500
O           7.75900        10.28900        23.68000
H           7.54000         9.83100        22.81900
C           8.20100         9.60000        26.04500
O           7.46900        10.71900        26.56600
H           7.87600        11.03600        27.42200
C           8.21000         5.37500        24.90800
O           7.65200         4.61000        23.83000
H           7.93800         3.65400        23.89800
C           7.86600         6.84000        25.12400
O           8.49300         7.16400        26.37300
C           8.08400         8.40200        26.97300
O           8.97600         8.55000        28.08800
C           8.44300         8.28600        29.39400
C           8.87800         6.88700        29.80100
O           8.27100         5.90100        28.95400
H           8.46300         6.33700        28.07400
C           8.46400         6.51200        31.21500
O           9.31800         5.45400        31.67400
H           8.89000         4.92400        32.40600
C           8.25100        10.58000        30.02300
O           8.93700        11.37500        29.04600
H           8.76500        12.35700        29.12300
C           8.83900         9.25900        30.49200
O           8.10400         8.80200        31.63700
C           8.66700         7.62400        32.23200
O           7.91300         7.40500        33.43200
C           8.64200         7.73200        34.62400
C           8.39800         9.15500        35.09800
O           8.75400        10.18000        34.15800
H           8.64000         9.98200        33.18500
C           9.07700         9.48000        36.41800
O           8.64100        10.73300        36.96600
H           9.00300        10.81100        37.89500
C           8.73800         5.37500        35.35500
O           8.46700         4.65000        34.14700
H           8.34300         3.67800        34.34500
C           8.20800         6.75600        35.70600
O           8.86900         7.13400        36.92200
C           8.50900         8.44600        37.37700
O           9.09300         8.67400        38.66800
C           8.49100         8.35700        39.93200
C           9.09900         7.06000        40.44300
O           8.94500         6.01700        39.47000
H           9.26600         6.36500        38.58900
C           8.42100         6.62800        -0.30800
O           8.98300         5.40800         0.19500
H           8.55400         5.17700         1.06900
C           8.48100        10.88100        40.58400
O           9.12800        11.48000        39.45100
H           8.87900        12.44600        39.52100
C           8.62800         9.42600        -1.04900
O           7.97900         8.96000         0.14300
C           8.61200         7.78200         0.66300
O           7.80000         7.62300         1.83600
C           4.25700         4.49700         0.22400
C           4.44100         3.11400        42.87800
O           4.11100         2.07400        41.94700
H           4.43100         2.47400        41.08700
C           3.71500         2.75600         2.12300
O           4.48300         1.63100         2.57600
H           4.14500         1.26800         3.44400
C           4.17400         6.91400         0.89700
O           4.77500         7.60100        -0.21000
H           4.86000         8.58100        -0.03200
C           4.58200         5.51000         1.31000
O           3.84400         5.20100         2.50100
C           4.10100         3.89900         3.04800
O           3.35600         3.69500         4.25700
C           3.94000         3.98200         5.53700
C           3.64400         5.39000         6.02500
O           4.01800         6.41700         5.09500
H           4.00300         5.99800         4.18800
C           4.30200         5.69300         7.36200
O           3.83800         6.95800         7.85400
H           4.31200         7.10100         8.72300
C           4.27700         1.48800         6.32500
O           3.83000         0.76500         5.17000
H           4.19100        -0.16200         5.27500
C           3.72100         2.88200         6.56300
O           4.34800         3.32400         7.77600
C           3.83000         4.56800         8.26800
O           4.63500         4.56200         9.45600
C           3.96500         4.31700        10.70100
C           4.28100         2.90500        11.16600
O           4.10100         1.94100        10.11900
H           4.36700         2.41500         9.28000
C           3.62500         2.58800        12.50000
O           3.91800         1.30400        13.06900
H           3.47600         1.12700        13.94800
C           3.89300         6.77800        11.57700
O           4.37500         7.64700        10.54200
H           3.86100         8.50300        10.56800
C           4.40300         5.35300        11.72300
O           3.95800         4.93100        13.02000
C           4.18400         3.59500        13.49300
O           3.50300         3.60400        14.75600
C           4.21600         3.90800        15.96400
C           3.54400         5.20200        16.39200
O           3.90100         6.24500        15.47400
H           3.91100         5.83700        14.56100
C           3.84400         5.67800        17.80400
O           3.33900         6.92200        18.31000
H           3.83800         7.26700        19.10600
C           4.54900         1.52400        16.79100
O           3.98300         0.75700        15.71900
H           4.24200        -0.20300        15.82400
C           3.78700         2.83000        16.94600
O           4.27400         3.26000        18.22600
C           3.70800         4.47900        18.72900
O           4.36600         4.72200        19.98100
C           3.80300         4.31500        21.23700
C           4.17600         2.91300        21.69100
O           4.07300         1.90100        20.67800
H           4.21000         2.35400        19.79700
C           3.45300         2.68100        23.00800
O           3.59800         1.33800        23.49300
H           3.56500         1.19000        24.48200
C           3.70900         6.80200        21.95600
O           4.37300         7.47900        20.87900
H           4.04800         8.42300        20.93100
C           4.15600         5.38100        22.26100
O           3.67300         4.97700        23.55100
C           4.03300         3.66600        24.01000
O           3.48500         3.39600        25.30900
C           4.24900         3.74800        26.47200
C           3.97800         5.14300        27.01200
O           3.98400         6.23000        26.07500
H           3.59900         5.92500        25.20400
C           4.78300         5.39100        28.27700
O           4.66100         6.73200        28.77400
H           5.02200         6.72800        29.70600
C           4.17000         1.29600        27.19500
O           3.71100         0.45800        26.12500
H           4.02100        -0.48800        26.22500
C           3.84100         2.74000        27.53400
O           4.49400         3.09000        28.76300
C           4.30300         4.39700        29.32300
O           5.12100         4.44100        30.50100
C           4.36700         4.26700        31.71000
C           4.71600         2.88700        32.24200
O           4.60300         1.89900        31.20800
H           4.69600         2.30300        30.29700
C           3.97400         2.56600        33.52900
O           4.01400         1.16000        33.81100
H           3.87000         1.07000        34.79700
C           4.43900         6.62800        32.42600
O           4.91400         7.32100        31.26300
H           4.64600         8.28300        31.21300
C           4.87000         5.21600        32.78600
O           4.32700         4.92100        34.08100
C           4.49100         3.57300        34.54400
O           3.82800         3.50700        35.81500
C           4.27800         3.83600        37.13700
C           3.98100         5.28300        37.49800
O           4.27000         6.27000        36.49800
H           3.99100         5.77800        35.67300
C           4.61400         5.66000        38.82800
O           4.07700         6.92000        39.25500
H           4.48900         7.25000        40.10400
C           4.01600         1.50800        37.79000
O           3.66200         0.75800        36.61900
H           3.78200        -0.19300        36.90600
C           3.65200         2.93000        38.18500
O           4.37300         3.23400        39.38800
C           4.16800         4.58900        39.81000
O           4.94600         4.64200        41.01500
C           8.44000        16.09200         3.09400
C           7.79000        17.37500         3.58400
O           7.91800        18.44600         2.63700
H           7.92300        18.10700         1.69600
C           8.30100        17.72400         4.97200
O           7.58900        18.79600         5.60600
H           8.22900        19.16300         6.28100
C           8.29100        13.61300         3.90500
O           8.05200        12.78500         2.75800
H           8.21500        11.80500         2.87200
C           7.95000        15.07900         4.11700
O           8.54500        15.32600         5.39900
C           8.15700        16.58500         5.96800
O           8.91600        16.67100         7.18300
C           8.13300        16.37500         8.34900
C           8.64400        15.05500         8.90300
O           8.07800        14.13800         7.95500
H           8.44600        14.32700         7.04400
C           8.16000        14.78200        10.31800
O           8.66700        13.64000        11.02300
H           8.31400        13.57000        11.95600
C           8.26100        18.85000         9.01100
O           8.89100        19.56500         7.93800
H           8.60100        20.50500         8.12000
C           8.62400        17.41200         9.34600
O           7.98500        17.17500        10.60900
C           8.53500        15.97800        11.17700
O           7.71800        15.82300        12.34600
C           8.32500        16.05800        13.62500
C           7.84600        17.40700        14.13700
O           7.50200        18.43600        13.19900
H           7.52800        18.05400        12.27500
C           8.47500        17.84900        15.44800
O           8.00800        19.12900        15.89900
H           8.07000        19.12200        16.89700
C           8.02500        13.60100        14.47900
O           7.59200        12.94300        13.28000
H           7.83800        11.98100        13.40000
C           7.87800        15.09600        14.71300
O           8.46200        15.40700        15.98600
C           8.19900        16.73900        16.45000
O           8.92400        17.00200        17.66000
C           8.23800        16.61600        18.86000
C           8.60200        15.22500        19.35100
O           8.35800        14.23500        18.34100
H           8.50600        14.68700        17.46200
C           8.12900        14.93600        20.76600
O           8.88800        13.87400        21.36300
H           8.32100        13.60800        22.14200
C           7.67200        18.98400        19.43600
O           8.14900        19.86900        18.41200
H           8.53200        20.74200        18.71300
C           8.36400        17.71400        19.90300
O           7.64300        17.27700        21.06400
C           8.31400        16.15500        21.65500
O           7.40600        16.02400        22.75800
C           8.11900        16.07400        24.00200
C           7.67300        17.37600        24.64800
O           7.80700        18.50500        23.77200
H           7.37900        18.23600        22.90900
C           8.39400        17.74900        25.93200
O           7.83000        18.98000        26.40700
H           8.40700        19.35000        27.13500
C           8.33800        13.68700        24.60600
O           7.54100        13.01200        23.62200
H           7.84500        12.06100        23.57500
C           7.73000        15.01600        25.02200
O           8.37900        15.36400        26.25300
C           8.08600        16.61400        26.89500
O           8.82600        16.80500        28.10900
C           8.28900        16.43100        29.38600
C           8.76000        15.04500        29.79500
O           8.44400        14.07600        28.78500
H           8.90200        14.40300        27.95800
C           8.24100        14.72300        31.18700
O           8.36500        13.39500        31.71600
H           8.15400        13.50400        32.68700
C           8.33700        18.93200        30.07300
O           8.84300        19.65500        28.94100
H           8.50100        20.58100        29.09900
C           8.79400        17.50600        30.33500
O           8.41900        17.15900        31.67600
C           8.66800        15.82500        32.14300
O           7.96100        15.63800        33.37800
C           8.46300        16.05100        34.65700
C           7.81800        17.34000        35.13900
O           7.86300        18.26200        34.04000
H           7.96700        17.74100        33.19300
C           8.33600        17.83100        36.48100
O           7.67100        19.00400        36.97200
H           8.15500        19.12800        37.83800
C           8.38600        13.61700        35.35000
O           7.86300        12.85000        34.25600
H           8.22900        11.93100        34.40400
C           7.98200        15.04300        35.68800
O           8.58800        15.42800        36.93000
C           8.07300        16.67200        37.42800
O           8.90500        16.81800        38.58800
C           8.27600        16.44300        39.82200
C           9.01900        15.21400        40.32100
O           8.87800        14.11000        39.41600
H           9.24000        14.37700        38.52300
C           8.62800        14.75100        -0.32900
O           9.34900        13.70200         0.33300
H           8.83900        13.19300         1.02600
C           7.77300        18.85000        40.58100
O           8.51100        19.63000        39.62900
H           8.24900        20.58600        39.76400
C           8.45000        17.52600        -1.17800
O           7.97100        17.13900         0.11800
C           8.57800        15.93900         0.61800
O           7.92900        15.59100         1.85000
C           4.08100        12.45900         0.13600
C           4.42800        11.11500        42.80900
O           4.43900        10.05800        41.83800
H           4.44000        10.48600        40.93400
C           3.66900        10.78200         2.04400
O           3.97000         9.45700         2.50500
H           3.79200         9.38400         3.48700
C           4.07200        14.87500         0.90700
O           4.41200        15.64100        -0.25800
H           4.15500        16.59000        -0.07900
C           4.45700        13.44100         1.23400
O           3.77100        13.16800         2.46400
C           4.05000        11.87800         3.02600
O           3.32300        11.84700         4.26300
C           4.11100        12.01300         5.45100
C           3.95800        13.44000         5.95400
O           4.45300        14.34200         4.95400
H           4.06800        13.92700         4.13000
C           4.62200        13.53900         7.31800
O           4.32200        14.88700         7.70600
H           4.55500        14.98700         8.67300
C           3.88800         9.54100         6.22500
O           3.58400         8.86200         4.99800
H           3.69100         7.92200         5.32300
C           3.70300        11.01900         6.52600
O           4.21600        11.18900         7.85500
C           4.06200        12.53900         8.31700
O           4.66300        12.84800         9.58300
C           3.80700        12.64900        10.71700
C           4.07400        11.24200        11.22700
O           3.53700        10.29200        10.29400
H           3.76300        10.56400         9.35900
C           3.55400        10.87100        12.60600
O           4.17300         9.65400        13.04700
H           3.80800         9.33800        13.92300
C           3.93400        14.97700        11.59900
O           4.74800        15.59000        10.58900
H           4.75100        16.57600        10.75600
C           4.20900        13.51200        11.90100
O           3.44400        13.29500        13.09500
C           3.79700        11.99700        13.59600
O           2.99500        11.76500        14.76300
C           3.69600        11.93800        16.00300
C           3.23500        13.25700        16.60000
O           3.56100        14.36800        15.75300
H           3.25900        14.06100        14.85100
C           3.93400        13.52300        17.92400
O           3.68200        14.79600        18.53600
H           4.34900        14.91800        19.27100
C           3.90100         9.56600        16.61500
O           3.53200         8.88500        15.40700
H           3.80700         7.92700        15.49100
C           3.31200        10.90000        17.04500
O           3.88500        11.11200        18.34300
C           3.61900        12.40500        18.90400
O           4.41300        12.47500        20.09700
C           3.75000        12.19400        21.33800
C           4.05300        10.80700        21.87900
O           3.44200        10.03700        20.83400
H           3.67700        10.43000        19.94500
C           3.61300        10.60700        23.32000
O           4.21000         9.35600        23.69100
H           4.00600         9.16900        24.65200
C           3.87600        14.68900        22.08600
O           4.61600        15.28000        21.00800
H           4.58000        16.27800        21.05600
C           4.23500        13.23300        22.33600
O           3.73400        13.06300        23.67000
C           4.04200        11.76700        24.20300
O           3.33900        11.75300        25.45400
C           4.22100        11.83200        26.58300
C           3.97500        13.25100        27.06900
O           4.42000        14.25800        26.14900
H           3.97900        13.98400        25.29400
C           4.59400        13.59900        28.41300
O           4.05100        14.79800        28.98500
H           4.41000        14.99600        29.89700
C           4.10800         9.46900        27.47500
O           3.89200         8.76700        26.24300
H           3.90000         7.77900        26.39700
C           3.72300        10.92300        27.69500
O           4.44700        11.11200        28.91900
C           4.19100        12.46100        29.33600
O           5.09600        12.52300        30.44700
C           4.33900        12.28000        31.64200
C           4.69600        10.87200        32.09000
O           4.10600         9.94700        31.16500
H           4.33500        10.33800        30.27300
C           4.32000        10.49000        33.51300
O           4.90300         9.31300        34.09100
H           4.54700         9.21300        35.02000
C           4.27500        14.66300        32.51400
O           4.92000        15.43200        31.48800
H           4.44800        16.29600        31.31300
C           4.64200        13.21700        32.79900
O           4.00100        12.81700        34.01900
C           4.62600        11.61400        34.49000
O           3.87300        11.49900        35.70600
C           4.38300        11.98600        36.95600
C           3.91300        13.30500        37.54600
O           3.93900        14.35800        36.57200
H           3.92500        13.98600        35.64400
C           4.59900        13.72900        38.83500
O           4.05800        14.96800        39.31400
H           4.44500        15.14100        40.21900
C           4.68100         9.58200        37.87900
O           4.42100         8.86600        36.66300
H           4.41600         7.86800        36.72400
C           4.10100        10.97600        38.05700
O           4.52200        11.31900        39.38500
C           4.19200        12.64600        39.82200
O           4.93700        12.69600        41.04700
C           8.23600        24.08600         2.93600
C           7.50100        25.31600         3.44400
O           7.52200        26.45100         2.56600
H           7.24800        26.11400         1.66500
C           8.00300        25.74300         4.81400
O           7.36400        26.84200         5.47900
H           7.73600        26.93900         6.40200
C           8.40900        21.59400         3.79600
O           8.01200        20.89900         2.60400
H           7.83900        19.92200         2.72900
C           8.07700        23.05700         4.04300
O           8.74100        23.45000         5.25200
C           8.14000        24.61900         5.82800
O           8.80100        24.84600         7.08100
C           8.09200        24.54100         8.29000
C           8.81500        23.32600         8.84700
O           8.85600        22.21600         7.93800
H           9.20300        22.47600         7.03700
C           8.28400        22.92900        10.21500
O           9.08000        21.88300        10.79200
H           8.80700        21.57200        11.70200
C           7.47300        26.91200         8.94200
O           8.14300        27.69900         7.94700
H           8.03300        28.67600         8.13100
C           8.16100        25.62200         9.35700
O           7.43400        25.13600        10.49400
C           8.26400        24.14800        11.12200
O           7.59400        23.76100        12.33200
C           8.22600        24.31400        13.49600
C           7.34800        25.50000        13.86200
O           7.36400        26.54400        12.87800
H           7.19200        26.06600        12.01600
C           7.83500        25.99100        15.21500
O           7.10900        27.12800        15.70500
H           7.53700        27.45200        16.54800
C           9.04300        22.05500        14.30300
O           8.42300        21.15300        13.37500
H           8.04100        20.30400        13.74000
C           8.18900        23.27600        14.60500
O           8.71000        23.87900        15.79900
C           7.84300        24.91300        16.28700
O           8.38400        25.20500        17.58400
C           7.77200        24.60700        18.73600
C           8.56300        23.49000        19.39700
O           8.96800        22.55300        18.38900
H           9.51400        23.12300        17.77400
C           7.87300        22.95100        20.64000
O           8.64200        21.83500        21.11100
H           8.40700        21.58100        22.04900
C           7.21400        26.99500        19.60600
O           7.70100        27.85900        18.56900
H           7.67700        28.83600        18.77700
C           7.97200        25.69000        19.78400
O           7.35700        25.23100        20.99700
C           7.94400        24.09100        21.64200
O           7.32400        23.72400        22.88300
C           7.93100        24.16400        24.10600
C           7.53900        25.58100        24.49300
O           7.99900        26.54700        23.53700
H           7.69200        26.38400        22.60000
C           8.06500        25.87100        25.88900
O           7.36300        26.99600        26.43800
H           7.68300        27.45100        27.26900
C           7.81600        21.65200        24.87900
O           6.79500        20.98100        24.12500
H           7.09900        20.05300        23.91100
C           7.54100        23.12300        25.14200
O           8.03300        23.45500        26.44800
C           7.69100        24.78000        26.87900
O           8.34200        24.93700        28.14800
C           7.65800        24.49200        29.32900
C           8.28000        23.22100        29.88300
O           8.31800        22.27300        28.80600
H           8.69600        22.70900        27.98900
C           7.83100        22.83100        31.28100
O           8.88200        21.96600        31.73700
H           8.60600        21.79000        32.68200
C           7.03600        26.83000        29.88700
O           7.74700        27.66800        28.96500
H           7.51700        28.63600        29.06100
C           7.79400        25.60000        30.36000
O           7.25500        25.22800        31.63700
C           7.94000        24.07500        32.14700
O           7.23600        23.69400        33.33800
C           7.78300        24.28500        34.52600
C           7.07100        25.52900        35.03100
O           7.07100        26.62600        34.10600
H           6.71600        26.41700        33.19500
C           7.66400        25.87500        36.38800
O           7.04900        26.98600        37.05500
H           7.51400        27.20000        37.91500
C           8.42700        21.78100        35.27500
O           7.98700        21.08500        34.10000
H           7.88200        20.12500        34.36100
C           7.76700        23.12900        35.51400
O           8.32000        23.54600        36.77000
C           7.66700        24.69000        37.34000
O           8.47600        25.03500        38.47400
C           8.01800        24.55500        39.74600
C           8.67000        23.26600        40.21800
O           8.39100        22.20400        39.29400
H           8.57600        22.58300        38.38700
C           8.31100        22.85400        -0.40800
O           9.11300        21.76400         0.07100
H           8.58500        21.49000         0.87500
C           7.98000        27.07700        40.61100
O           8.30600        27.81300        39.42400
H           8.00400        28.73700        39.65600
C           8.29800        25.60400        -1.24500
O           7.81500        25.27800         0.06700
C           8.47200        24.07300         0.48600
O           7.68400        23.77500         1.64800
C           3.92400        20.71000         0.19100
C           4.34100        19.31500        42.68500
O           3.83400        18.30900        41.79700
H           3.92900        18.71200        40.88700
C           3.87700        18.93500         2.03800
O           4.35100        17.63300         2.41100
H           4.18200        17.54800         3.39300
C           4.15800        23.08700         0.95200
O           4.46000        23.89700        -0.19300
H           4.31900        24.85400         0.05800
C           4.50000        21.63700         1.24900
O           4.05200        21.33400         2.57900
C           4.37300        20.00100         3.00100
O           3.66700        19.92800         4.24800
C           4.29500        20.20900         5.50700