# freq=raman b3lyp/6-31+g(d,p) geom=connectivity

550 5000.com

0 1
 O                  9.37200000    6.95600000   21.45700000
 C                 10.32000000    6.91800000   22.53400000
 C                 10.14000000    8.21500000   23.30700000
 O                 10.27400000    9.37800000   22.47800000
 H                 10.00600000    8.93000000   21.62500000
 C                 10.88800000    8.44500000   24.61000000
 O                 10.94000000    9.63800000   25.40600000
 H                 11.04500000   10.43000000   24.80500000
 C                  9.62900000    4.52000000   22.98800000
 O                  9.03900000    3.59100000   23.90900000
 H                  8.99900000    2.68900000   23.47900000
 C                  9.92400000    5.88900000   23.58000000
 O                 10.71700000    6.01400000   24.76900000
 C                 10.52200000    7.24900000   25.47400000
 O                 11.18400000    7.20400000   26.74600000
 C                 10.42300000    7.47300000   27.93300000
 C                  9.64200000    6.21500000   28.27600000
 O                  8.35800000    6.15400000   27.64000000
 H                  8.49700000    6.60300000   26.75700000
 C                  9.25300000    6.08300000   29.74000000
 O                  8.79100000    4.73100000   29.87500000
 H                  7.83400000    4.80900000   29.59600000
 C                 11.85800000    9.14200000   28.78400000
 O                 10.97900000   10.25100000   28.54400000
 H                 11.40700000   10.71500000   27.76800000
 C                 11.29500000    7.77600000   29.14000000
 O                 10.63800000    7.95500000   30.40400000
 C                 10.33000000    6.58200000   30.68900000
 O                  9.61700000    6.53500000   31.93300000
 H                 10.24335964    6.50753321   32.65999324
 H                 11.19664236    5.95444520   30.69144778
 H                  8.40189489    6.71339961   29.89204088
 H                 10.21590505    5.35901651   27.98820623
 H                  9.74792633    8.28444169   27.75767767
 H                 12.08386918    7.05797343   29.22380494
 H                 12.45362177    9.01685000   27.90395898
 H                 12.51506599    9.42796220   29.57860047
 H                  9.84022070    6.98555157   20.61944637
 H                 10.54558200    4.10268570   22.62657752
 H                  8.96282073    4.64545462   22.16013146
 H                  8.95878977    6.22055105   23.90147025
 H                 11.32549641    6.78687689   22.19241005
 H                  9.10938947    8.20428731   23.59444944
 H                 11.91144236    8.28538274   24.34169409
 H                  9.47416626    7.32679900   25.67621714

 1 2 1.0 38 1.0
 2 3 1.0 12 1.0 42 1.0
 3 4 1.0 6 1.0 43 1.0
 4 5 1.0
 5
 6 7 1.0 14 1.0 44 1.0
 7 8 1.0
 8
 9 10 1.0 12 1.0 39 1.0 40 1.0
 10 11 1.0
 11
 12 13 1.0 41 1.0
 13 14 1.0
 14 15 1.0 45 1.0
 15 16 1.0
 16 17 1.0 26 1.0 34 1.0
 17 18 1.0 20 1.0 33 1.0
 18 19 1.0
 19
 20 21 1.0 28 1.0 32 1.0
 21 22 1.0
 22
 23 24 1.0 26 1.0 36 1.0 37 1.0
 24 25 1.0
 25
 26 27 1.0 35 1.0
 27 28 1.0
 28 29 1.0 31 1.0
 29 30 1.0
 30
 31
 32
 33
 34
 35
 36
 37
 38
 39
 40
 41
 42
 43
 44
 45

