# freq=raman b3lyp/6-31+g(d,p) geom=connectivity

450K 10000ps Cellobiose Unit 1

0 1
 O(PDBName=O1,ResName=GLC,ResNum=6)                   10.49700000    7.94000000   32.16700000
 C(PDBName=C4,ResName=GLC,ResNum=7)                   11.33200000    7.74200000   33.31700000
 C(PDBName=C3,ResName=GLC,ResNum=7)                   11.90500000    9.13100000   33.54200000
 O(PDBName=O3,ResName=GLC,ResNum=7)                   13.06800000    9.30600000   32.72000000
 H(PDBName=HO3,ResName=GLC,ResNum=7)                  12.78300000    9.43100000   31.77000000
 C(PDBName=C2,ResName=GLC,ResNum=7)                   12.42300000    9.27500000   34.96400000
 O(PDBName=O2,ResName=GLC,ResNum=7)                   12.16500000   10.65500000   35.25800000
 H(PDBName=HO2,ResName=GLC,ResNum=7)                  12.76500000   11.30800000   34.79500000
 C(PDBName=C6,ResName=GLC,ResNum=7)                   10.20200000    5.83300000   34.23700000
 O(PDBName=O6,ResName=GLC,ResNum=7)                    9.70500000    4.90400000   35.21100000
 H(PDBName=HO6,ResName=GLC,ResNum=7)                   9.78900000    3.98000000   34.83600000
 C(PDBName=C5,ResName=GLC,ResNum=7)                   10.49300000    7.30000000   34.50500000
 O(PDBName=O5,ResName=GLC,ResNum=7)                   11.28000000    7.26300000   35.70400000
 C(PDBName=C1,ResName=GLC,ResNum=7)                   11.59900000    8.61600000   36.05800000
 O(PDBName=O1,ResName=GLC,ResNum=7)                   12.09700000    8.32900000   37.37300000
 C(PDBName=C4,ResName=GLC,ResNum=8)                   11.40500000    8.31900000   38.63000000
 C(PDBName=C3,ResName=GLC,ResNum=8)                   10.93300000    6.98500000   39.18500000
 O(PDBName=O3,ResName=GLC,ResNum=8)                   10.43700000    6.18600000   38.10100000
 H(PDBName=HO3,ResName=GLC,ResNum=8)                  10.91700000    6.46000000   37.26800000
 C(PDBName=C2,ResName=GLC,ResNum=8)                   10.06000000    7.17900000   40.41400000
 O(PDBName=O2,ResName=GLC,ResNum=8)                    9.07700000    6.21900000   40.82700000
 H(PDBName=HO2,ResName=GLC,ResNum=8)                   8.27800000    6.14000000   40.23000000
 C(PDBName=C6,ResName=GLC,ResNum=8)                   12.51800000   10.22800000   39.34400000
 O(PDBName=O6,ResName=GLC,ResNum=8)                   13.31500000   11.07900000   40.18000000
 H(PDBName=HO6,ResName=GLC,ResNum=8)                  14.22300000   10.75700000   40.45000000
 C(PDBName=C5,ResName=GLC,ResNum=8)                   12.30500000    8.78300000   39.76400000
 O(PDBName=O5,ResName=GLC,ResNum=8)                   11.68100000    8.82900000   41.05500000
 C(PDBName=C1,ResName=GLC,ResNum=8)                   11.02700000    7.63000000   41.49700000
 O(PDBName=O1,ResName=GLC,ResNum=8)                   10.46000000    7.95400000   42.77400000
 H                                                    11.16487041    8.11427939   43.40571847
 H                                                    11.04684864    8.07352501   31.39147595
 H                                                    11.11455663    5.41367050   33.86780741
 H                                                     9.50294296    5.81385801   33.42715259
 H                                                     9.59948559    7.87796795   34.61673647
 H                                                    12.10875597    7.03603452   33.10924318
 H                                                    11.17412097    9.88251401   33.32765788
 H                                                    10.68536902    9.16362945   36.15939238
 H                                                    13.46411108    9.04123505   35.04363458
 H                                                    10.56583765    8.97952304   38.56354800
 H                                                    11.81154645    6.48372362   39.53396725
 H                                                     9.48107896    8.05012352   40.18840248
 H                                                    11.76485050    6.86739353   41.63450645
 H                                                    13.22762920    8.24151765   39.78526570
 H                                                    11.55319519   10.68119518   39.25090972
 H                                                    12.96855521   10.21755049   38.37354093

 1 2 1.0 31 1.0
 2 3 1.0 12 1.0 35 1.0
 3 4 1.0 6 1.0 36 1.0
 4 5 1.0
 5
 6 7 1.0 14 1.0 38 1.0
 7 8 1.0
 8
 9 10 1.0 12 1.0 32 1.0 33 1.0
 10 11 1.0
 11
 12 13 1.0 34 1.0
 13 14 1.0
 14 15 1.0 37 1.0
 15 16 1.0
 16 17 1.0 26 1.0 39 1.0
 17 18 1.0 20 1.0 40 1.0
 18 19 1.0
 19
 20 21 1.0 28 1.0 41 1.0
 21 22 1.0
 22
 23 24 1.0 26 1.0 44 1.0 45 1.0
 24 25 1.0
 25
 26 27 1.0 43 1.0
 27 28 1.0
 28 29 1.0 42 1.0
 29 30 1.0
 30
 31
 32
 33
 34
 35
 36
 37
 38
 39
 40
 41
 42
 43
 44
 45


