# freq=raman b3lyp/6-31+g(2d,p) geom=connectivity

473 6000.com

0 1
C           8.01800         7.85200        23.96400
C           7.76400         9.29400        24.37300
O           8.16000        10.31600        23.44700
H           7.76300        10.02700        22.57600
C           8.29400         9.61000        25.76200
O           7.67400        10.80700        26.25600
H           7.94100        10.79600        27.22000
C           8.18700         5.44400        24.86100
O           7.53000         4.64700        23.86500
H           7.79900         3.73300        24.16900
C           7.71200         6.87100        25.08400
O           8.41500         7.22600        26.28400
C           7.90500         8.49500        26.71900
O           8.58000         8.67800        27.97200
C           7.98500         8.35500        29.23700
C           8.62200         7.06200        29.71800
O           8.38200         6.00300        28.78000
H           8.24100         6.38200        27.86500
C           8.17800         6.68000        31.12100
O           8.89400         5.55200        31.64600
H           8.43400         5.39800        32.52000
C           7.89600        10.85300        29.92600
O           8.07600        11.52400        28.67000
H           8.12000        12.50000        28.88400
C           8.33600         9.43500        30.24800
O           7.74100         9.07700        31.50400
C           8.34800         7.88700        32.02800
O           7.53300         7.54600        33.15900
C           7.93700         8.00900        34.45500

