# freq=raman b3lyp/6-31+g(2d,p) geom=connectivity

310 5907/5907.com

0 1
C           8.47200         8.00100         2.97200
C           8.13300         9.42500         3.37900
O           9.04000        10.24400         2.62700
H           8.83800        10.00200         1.67800
C           8.36100         9.74700         4.84700
O           7.71100        10.93100         5.33200
H           8.24700        11.33800         6.07200
C           8.33300         5.63300         3.71500
O           8.37000         4.89900         2.48200
H           8.54400         3.91800         2.56000
C           7.76300         7.03000         3.90200
O           8.21200         7.36300         5.22400
C           7.84200         8.64400         5.75400
O           8.64300         8.69300         6.94400
C           8.09900         8.44200         8.24800
C           8.37200         7.01900         8.71000
O           8.20800         5.99600         7.71800
H           8.28800         6.28500         6.76400
C           7.80500         6.72500        10.09000
O           8.13800         5.40400        10.53900
H           7.87700         5.28900        11.49700
C           8.13300        10.76600         9.13700
O           8.66000        11.54100         8.05000
H           8.58700        12.52100         8.23300
C           8.72700         9.37400         9.27100
O           8.20900         9.12100        10.58600
C           8.37800         7.76900        11.03500
O           7.56800         7.90100        12.21300
C           8.24600         8.06900        13.46700
C           7.63100         9.32800        14.05600
O           7.63300        10.39800        13.09900
H           7.52300         9.95700        12.20900
C           8.25100         9.72100        15.38600
O           7.69000        10.89700        15.98900
H           8.12900        11.20700        16.83200
C           8.33200         5.60700        14.31100
O           7.70700         4.95800        13.19500
H           7.82400         3.97000        13.29100
C           7.89300         7.04500        14.53400
O           8.46700         7.45200        15.78500
C           7.93000         8.63300        16.39800
O           8.77500         8.67700        17.55600
C           8.10900         8.29500        18.76800
C           8.49700         6.91300        19.26800
O           8.05300         5.93200        18.32100
H           8.00800         6.35500        17.41600
C           8.07700         6.65500        20.70600
O           8.62900         5.41500        21.17000
H           8.52200         5.43600        22.16400
C           8.00500        10.75800        19.60100
O           8.42200        11.57500        18.49700
H           8.08900        12.49200        18.71700
C           8.41600         9.31600        19.85100
O           7.70000         8.99800        21.05200
C           8.28900         7.83100        21.64500
O           7.53500         7.62600        22.84900
C           8.15900         7.98100        24.09100
C           7.67200         9.34800        24.54400
O           7.98200        10.35500        23.57000
H           7.64700        10.05100        22.67800
C           8.16400         9.80200        25.90800
O           7.28200        10.81400        26.41700
H           7.72600        11.15900        27.24400
C           8.57500         5.64500        24.95800
O           8.13200         5.01500        23.74800
H           8.16900         4.01600        23.71500
C           8.02000         7.02600        25.26500
O           8.63300         7.43800        26.49600
C           8.12700         8.70000        26.95500
O           8.92300         8.95800        28.12100
C           8.34500         8.59800        29.38400
C           8.99900         7.31200        29.86500
O           8.87000         6.29600        28.86000
H           9.01100         6.68600        27.95000
C           8.51300         6.89100        31.24200
O           9.17200         5.69900        31.69200
H           8.82600         5.54400        32.61800
C           7.89700        10.98700        30.06800
O           8.23500        11.70300        28.87200
H           8.20100        12.69600        28.98700
C           8.57400         9.67500        30.43200
O           8.08500         9.30500        31.72900
C           8.65300         8.07100        32.19100
O           7.82100         7.75800        33.31800
C           8.35200         8.07100        34.61400
C           7.67400         9.32500        35.14200
O           7.65400        10.39300        34.18400
H           7.50000         9.88200        33.33800
C           8.32800         9.81000        36.42500
O           7.81300        11.05200        36.92500
H           8.16300        11.40600        37.79200
C           8.91400         5.70300        35.26700
O           8.27400         4.98100        34.20500
H           8.46400         4.00700        34.33100
C           8.15100         6.96500        35.63700
O           8.70800         7.44300        36.86900
C           8.16000         8.65700        37.40200
O           8.95900         8.96700        38.55300
C           8.48100         8.50600        39.82600
C           9.11400         7.17800        40.20900
O           8.84300         6.15300        39.24200
H           9.03800         6.59100        38.36500
C           8.63900         6.76200        -0.46600
O           9.25400         5.54300        -0.02500
H           8.99900         5.35800         0.92400
C           8.35500        10.97200        40.66500
O           8.49600        11.79300        39.49700
H           8.30700        12.75500        39.69600
C           8.88100         9.55700        -1.21600
O           8.59100         9.17800         0.13800
C           8.98400         7.85500         0.53200
O           8.09100         7.64200         1.63600
C           4.34400         4.61700         0.37600
C           4.78100         3.25700        42.95500
O           4.50900         2.20000        42.02400
H           4.78500         2.58600        41.14400
C           4.03200         2.91200         2.17400
O           3.92800         1.52800         2.53900
H           3.66300         1.46200         3.50000
C           4.14100         6.88300         1.11200
O           4.93200         7.65000         0.19200
H           4.48800         8.54600         0.19400
C           4.85600         5.58100         1.43400
O           4.37000         5.24200         2.74200
C           4.54000         3.89800         3.21400
O           3.82700         3.83300         4.45800
C           4.49800         4.01800         5.71200
C           4.22000         5.40000         6.28100
O           4.82700         6.40500         5.45600
H           4.79000         6.08700         4.50900
C           4.52300         5.63500         7.75100
O           3.81500         6.83100         8.11000
H           4.07400         7.17700         9.01200
C           4.12600         1.57900         6.49900
O           3.80300         0.80400         5.33500
H           4.16100        -0.12400         5.43600
C           3.87700         3.06300         6.71800
O           4.47900         3.33500         7.99200
C           3.97300         4.52000         8.62400
O           4.65000         4.62800         9.88500
C           3.88600         4.46700        11.08900
C           4.24900         3.06200        11.54100
O           4.14000         2.10400        10.47700
H           4.45300         2.46400         9.59900
C           3.48100         2.71400        12.80500
O           3.77000         1.36800        13.21000
H           3.37800         1.16600        14.10800
C           3.95500         6.92800        12.01700
O           4.39000         7.67800        10.87300
H           4.10000         8.61900        11.05400
C           4.35500         5.46600        12.13500
O           3.81300         5.12600        13.41900
C           3.89800         3.75400        13.83100
O           3.18700         3.67100        15.07500
C           3.99800         4.02200        16.20500
C           3.73800         5.41600        16.75200
O           4.17500         6.35800        15.76200
H           3.83800         5.93500        14.92100
C           4.45400         5.78600        18.04100
O           3.99100         7.04100        18.56100
H           4.39500         7.12500        19.47200
C           4.52500         1.72200        16.90900
O           3.82400         0.99400        15.89000
H           3.94300         0.01100        16.02700
C           3.81800         3.00400        17.32000
O           4.49100         3.31300        18.54900
C           4.10300         4.63100        18.96500
O           4.78200         4.76600        20.22200
C           4.07800         4.51900        21.44700
C           4.44900         3.11500        21.89700
O           4.38600         2.12900        20.85500
H           4.68600         2.44100        19.95400
C           3.86200         2.76700        23.25500
O           4.30300         1.48300        23.72100
H           4.16800         1.31500        24.69700
C           3.71500         6.83100        22.04200
O           4.39500         7.62900        21.06300
H           4.14700         8.59800        21.04700
C           4.38800         5.55300        22.51700
O           3.84600         5.13500        23.77800
C           4.24100         3.84200        24.26000
O           3.50800         3.63800        25.47600
C           4.22100         3.94800        26.68300
C           3.85700         5.30500        27.26400
O           3.99200         6.35900        26.29900
H           3.61200         6.09000        25.41400
C           4.64400         5.73100        28.49200
O           4.19500         7.00700        28.97100
H           4.42000         7.17600        29.93100
C           4.28200         1.51700        27.44900
O           3.84700         0.66900        26.37600
H           4.25100        -0.24100        26.47000
C           3.95300         2.95800        27.80400
O           4.60000         3.32600        29.03000
C           4.26800         4.64600        29.48700
O           4.91900         4.87600        30.74500
C           4.18400         4.54300        31.93200
C           4.53900         3.12700        32.35500
O           4.03000         2.15500        31.43100
H           4.40200         2.55100        30.59100
C           4.05600         2.76500        33.75000
O           4.30900         1.40700        34.13800
H           4.01700         1.26500        35.08400
C           4.20700         6.85300        32.79800
O           4.27300         7.57400        31.55900
H           3.94200         8.50600        31.70300
C           4.73400         5.44500        33.02500
O           4.23500         5.10700        34.32700
C           4.60200         3.78200        34.73900
O           3.84600         3.84400        35.95800
C           4.49700         3.96900        37.23100
C           4.16000         5.40100        37.61600
O           4.70300         6.32300        36.66000
H           4.49000         6.00800        35.73500
C           4.80100         5.67600        38.96700
O           4.58600         7.02400        39.40900
H           5.11700         7.15000        40.24700
C           4.07500         1.64500        37.97700
O           3.61300         0.90800        36.83500
H           3.80200        -0.05800        37.00900
C           3.87400         3.11200        38.32000
O           4.49500         3.41700        39.57700
C           4.27300         4.75300        40.05300
O           5.10400         4.74800        41.22300
C           8.52100        16.18000         3.02700
C           7.89200        17.45500         3.56700
O           8.02700        18.56700         2.67100
H           7.96400        18.16600         1.75700
C           8.34700        17.91500         4.94200
O           7.63000        19.04900         5.45000
H           7.94300        19.27600         6.37200
C           8.86700        13.69000         3.83000
O           8.28800        12.90800         2.77400
H           8.65500        11.97800         2.76700
C           8.32400        15.08900         4.06800
O           8.97300        15.57800         5.25100
C           8.32600        16.70400         5.86000
O           8.89300        17.00600         7.14300
C           8.08800        16.65500         8.27800
C           8.67400        15.36400         8.82400
O           8.50900        14.29700         7.87900
H           8.69600        14.66300         6.96700
C           8.12800        14.81100        10.13100
O           8.84600        13.66000        10.60000
H           8.57100        13.33100        11.50300
C           7.57800        18.98200         9.03800
O           8.11200        19.72700         7.93300
H           7.98400        20.71600         8.00800
C           8.12500        17.62500         9.44800
O           7.38300        17.11900        10.56700
C           8.08100        15.98300        11.09800
O           7.16600        15.84200        12.19400
C           7.72600        16.09900        13.49100
C           7.14500        17.40000        14.02000
O           7.45000        18.51700        13.17200
H           7.29400        18.19400        12.23900
C           7.69700        17.83700        15.36700
O           6.93100        18.94400        15.86300
H           7.35100        19.25400        16.71600
C           8.07900        13.79400        14.28100
O           7.66900        13.02800        13.13900
H           7.70300        12.03800        13.27400
C           7.38800        15.11200        14.59600
O           8.00500        15.46000        15.84400
C           7.54600        16.71000        16.37600
O           8.41100        16.87000        17.51000
C           7.82400        16.57100        18.78500
C           8.42400        15.24300        19.21500
O           8.03400        14.23000        18.27500
H           8.17600        14.69700        17.40200
C           8.07200        14.81400        20.63000
O           8.73900        13.66700        21.17700
H           8.25300        13.39100        22.00600
C           7.64500        19.05800        19.47600
O           7.96200        19.74900        18.25900
H           7.75900        20.69300        18.51700
C           8.16400        17.66300        19.78700
O           7.81600        17.26700        21.12100
C           8.32800        15.99700        21.54900
O           7.57100        15.69400        22.73100
C           8.16100        16.09600        23.97600
C           7.55600        17.37200        24.53900
O           7.85500        18.46800        23.66100
H           7.65000        18.21100        22.71600
C           7.98600        17.78200        25.93800
O           7.23500        18.88900        26.45900
H           7.61000        19.15700        27.34600
C           8.16400        13.60700        24.87600
O           7.83200        13.07400        23.58500
H           7.76700        12.08000        23.67100
C           7.85300        15.08200        25.06500
O           8.27700        15.38700        26.40200
C           7.70400        16.61600        26.87100
O           8.53400        16.75500        28.03300
C           7.91400        16.51500        29.30500
C           8.54400        15.29100        29.95100
O           8.18300        14.20600        29.08300
H           8.29400        14.49500        28.13200
C           7.97000        14.88400        31.29800
O           8.58000        13.73700        31.90900
H           8.10600        13.48500        32.75300
C           7.82900        19.02500        30.09900
O           8.37800        19.56200        28.88600
H           8.18500        20.54300        28.91800
C           8.11900        17.56200        30.38800
O           7.48800        17.18200        31.62000
C           8.01400        16.03000        32.29600
O           7.23600        15.95000        33.49900
C           7.98300        16.21600        34.69500
C           7.70900        17.62300        35.20000
O           7.91000        18.59800        34.16600
H           7.77100        18.17900        33.26900
C           8.33600        17.99300        36.53500
O           7.72900        19.21100        36.99100
H           7.98400        19.33100        37.95000
C           8.09000        13.81800        35.46100
O           7.61200        13.08700        34.32200
H           7.82600        12.11100        34.35900
C           7.67900        15.23800        35.81800
O           8.35000        15.59700        37.03400
C           7.93300        16.88900        37.49900
O           8.67800        17.09800        38.70800
C           8.01900        16.77700        39.94200
C           8.45600        15.35300        40.24500
O           7.90600        14.33500        39.39800
H           8.10700        14.70400        38.49000
C           8.12800        14.92400        -0.39300
O           8.70200        13.67500         0.01900
H           8.48300        13.50100         0.97800
C           7.83300        19.12700        40.71600
O           7.90700        19.76000        39.43000
H           7.82000        20.74400        39.58600
C           8.53100        17.79600        -1.11800
O           8.27900        17.35300         0.22400
C           8.62400        16.00100         0.55800
O           7.92000        15.77600         1.78800
C           3.98700        12.51500         0.49900
C           4.27800        11.13700         1.07000
O           3.91600        10.21500         0.03200
H           4.02600        10.84700        -0.73600
C           3.58800        10.82400         2.38800
O           4.07100         9.54700         2.82900
H           3.70500         9.43400         3.75300
C           3.80000        14.92600         1.13000
O           4.53900        15.61300         0.11000
H           4.49400        16.61200         0.11700
C           4.32400        13.56200         1.54900
O           3.73500        13.25800         2.82100
C           4.03400        11.94400         3.31400
O           3.30000        11.81600         4.54100
C           3.99500        12.12000         5.75900
C           3.70600        13.52200         6.27100
O           3.96300        14.56100         5.31500
H           3.85700        14.24200         4.37300
C           4.31800        13.88400         7.61400
O           4.07700        15.20100         8.12800
H           4.18600        15.23000         9.12200
C           4.20700         9.70900         6.58400
O           3.86300         8.86600         5.47400
H           4.40600         8.04200         5.63600
C           3.59000        11.08200         6.79300
O           4.03700        11.44000         8.10900
C           3.77500        12.79000         8.51900
O           4.60200        12.87500         9.68800
C           3.77900        12.62200        10.83600
C           4.25900        11.28500        11.37800
O           3.79300        10.28300        10.46300
H           4.13200        10.69100         9.61600
C           3.70400        10.97300        12.75900
O           4.21500         9.74400        13.29400
H           3.77900         9.51700        14.16500
C           3.77900        15.16100        11.60500
O           4.34300        15.89200        10.50700
H           4.11900        16.86200        10.59400
C           4.11300        13.69900        11.85500
O           3.59700        13.37000        13.15300
C           4.04600        12.12000        13.69600
O           3.22500        12.02800        14.87000
C           3.92600        12.23600        16.10400
C           3.48600        13.59800        16.61400
O           3.65600        14.59100        15.59200
H           3.56800        14.03700        14.76400
C           4.15500        13.86900        17.95200
O           3.75800        15.18200        18.37500
H           3.82200        15.29800        19.36600
C           4.10700         9.85200        16.90400
O           3.71200         9.09500        15.75000
H           4.01500         8.14300        15.79400
C           3.47500        11.21400        17.13600
O           4.01900        11.50300        18.43200
C           3.63000        12.80300        18.89900
O           4.48300        12.83200        20.05300
C           3.81800        12.54300        21.29100
C           4.18200        11.18200        21.86100
O           3.83500        10.23600        20.83900
H           3.93600        10.65700        19.93700
C           3.50900        10.81100        23.17300
O           3.82000         9.50800        23.68800
H           3.52100         9.45400        24.64100
C           3.84100        14.96200        22.06200
O           4.19500        15.72200        20.89700
H           3.82000        16.64800        20.94500
C           4.20700        13.52300        22.38600
O           3.65200        13.18300        23.66500
C           3.98100        11.87400        24.15100
O           3.20200        11.77100        25.35200
C           3.87600        12.00500        26.59700
C           3.71300        13.45500        27.02500
O           3.98300        14.46900        26.04700
H           3.69300        14.00600        25.20900
C           4.40100        13.72500        28.35300
O           4.23600        15.11000        28.69300
H           4.46900        15.26400        29.65300
C           3.64300         9.64900        27.55700
O           3.60600         8.85900        26.36000
H           3.84500         7.89800        26.50300
C           3.26700        11.11800        27.67000
O           3.74700        11.45400        28.98000
C           3.73400        12.83100        29.38400
O           4.46600        12.73100        30.61500
C           3.79100        12.51200        31.86200
C           4.12700        11.12100        32.37500
O           3.75400        10.15400        31.38200
H           3.94100        10.64500        30.53200
C           3.59400        10.93700        33.78700
O           4.18900         9.67900        34.13600
H           4.09100         9.43400        35.10000
C           3.81300        14.98600        32.57700
O           3.99300        15.62100        31.30300
H           3.93300        16.59900        31.50400
C           4.17100        13.54700        32.90800
O           3.75200        13.31500        34.26100
C           4.08800        12.00700        34.74700
O           3.42800        11.89800        36.01600
C           4.18500        12.25800        37.18100
C           3.79200        13.63100        37.70200
O           4.12600        14.61200        36.71000
H           3.92000        14.22000        35.81400
C           4.42100        13.88300        39.06300
O           3.74600        15.01800        39.62400
H           4.15500        15.23200        40.51100
C           4.22100         9.78300        37.88500
O           3.93300         8.98100        36.73000
H           4.39900         8.13500        36.98900
C           3.83500        11.21300        38.22700
O           4.39800        11.53200        39.50800
C           4.07700        12.80800        40.08100
O           4.74100        12.69100        41.34800
C           7.96000        24.48900         3.07000
C           7.63100        25.91000         3.49700
O           7.96600        26.95900         2.57700
H           7.62300        26.77300         1.65700
C           8.30300        26.14900         4.84000
O           7.68400        27.33900         5.34900
H           7.89500        27.57300         6.29800
C           7.97400        22.02500         3.90300
O           7.70200        21.42500         2.62800
H           7.75200        20.42700         2.66300
C           7.56300        23.47100         4.12800
O           8.29600        23.81300         5.31300
C           7.96400        25.09000         5.87600
O           8.78600        24.94500         7.04400
C           8.15700        24.83200         8.32900
C           8.61500        23.45900         8.79300
O           7.98600        22.55900         7.86800
H           8.25100        23.01200         7.01600
C           8.25600        23.05300        10.21300
O           8.80900        21.81500        10.68400
H           8.45300        21.68100        11.60900
C           8.09900        27.25900         9.11500
O           8.26100        27.98300         7.88600
H           8.24100        28.97700         7.99500
C           8.62700        25.85400         9.35200
O           8.11500        25.47400        10.63800
C           8.55400        24.20900        11.15400
O           7.74100        23.96300        12.31100
C           8.25000        24.40800        13.57600
C           7.53100        25.67400        14.01300
O           7.90100        26.66800        13.04600
H           8.00700        26.08000        12.24400
C           7.82900        26.05800        15.45300
O           7.11800        27.15200        16.05000
H           7.68500        27.46200        16.81300
C           8.57200        21.91300        14.20300
O           8.05400        21.22300        13.05600
H           7.72200        20.32300        13.34000
C           7.96200        23.26500        14.53500
O           8.44700        23.73300        15.80200
C           7.73100        24.84400        16.36300
O           8.43600        25.09700        17.58700
C           7.88400        24.64200        18.83000
C           8.44300        23.29200        19.24900
O           8.27300        22.30700        18.22000
H           8.64800        22.62000        17.34700
C           7.92200        22.93100        20.63000
O           8.29500        21.66100        21.18600
H           8.15900        21.70300        22.17600
C           7.69300        26.92300        19.52700
O           8.22100        27.78100        18.50500
H           7.83800        28.69900        18.60600
C           8.33600        25.60200        19.91800
O           7.67500        25.22100        21.13400
C           8.19000        23.99800        21.68000
O           7.34000        23.87000        22.82900
C           7.94400        24.22700        24.08100
C           7.58200        25.62500        24.55600
O           7.84300        26.65200        23.58800
H           7.24300        26.36400        22.84100
C           8.14300        25.97200        25.92500
O           7.62200        27.22200        26.39900
H           8.20100        27.37700        27.19900
C           8.15100        21.79400        24.91400
O           7.63500        21.19400        23.71700
H           7.72700        20.20000        23.76800
C           7.68700        23.21500        25.18600
O           8.33600        23.56600        26.41600
C           7.85500        24.83200        26.89000
O           8.62500        25.17400        28.05100
C           8.00500        24.78800        29.28700
C           8.37200        23.42200        29.84500
O           7.83700        22.44400        28.94200
H           8.19900        22.79500        28.07900
C           7.90200        22.97000        31.21800
O           8.76700        21.92600        31.68700
H           8.56900        21.59800        32.61100
C           7.79700        27.23800        30.00700
O           8.44200        27.96500        28.95100
H           8.09700        28.90100        28.89200
C           8.18200        25.81800        30.39000
O           7.48100        25.43300        31.58200
C           7.98300        24.19700        32.11100
O           7.12200        24.14200        33.25800
C           7.79300        24.41200        34.49700
C           7.33200        25.78000        34.97100
O           7.67200        26.71300        33.93600
H           7.55500        26.14000        33.12500
C           7.85400        26.08100        36.36700
O           7.20400        27.22900        36.93300
H           7.63800        27.30800        37.83100
C           8.11300        22.00700        35.21000
O           7.87500        21.15500        34.08000
H           8.03900        20.21300        34.37200
C           7.48800        23.35200        35.54400
O           8.03100        23.69700        36.82700
C           7.55700        24.95100        37.33900
O           8.37900        25.13400        38.50100
C           7.85800        24.76700        39.78700
C           8.48100        23.50100        40.35100
O           8.28500        22.45700        39.38600
H           8.45400        22.89300        38.50200
C           7.96500        23.12900        -0.32700
O           8.75000        22.12400         0.33100
H           8.17300        21.79700         1.08000
C           7.88600        27.25100        40.47800
O           8.44700        27.82000        39.28600
H           8.44300        28.80000        39.48200
C           8.13600        25.80100        -1.19700
O           7.40400        25.50600         0.00100
C           8.02400        24.34800         0.57800
O           7.28900        24.34100         1.81100
C           3.92500        20.75500         0.23700
C           4.48400        19.43900        42.81400
O           4.14000        18.36600        41.92600
H           3.96800        18.79500        41.03900
C           3.98400        18.96900         2.11200
O           4.53800        17.71500         2.53600
H           4.56600        17.54800         3.52200
C           3.93700        23.16100         1.17200
O           4.42000        23.80900        -0.01300
H           4.22200        24.78000         0.11800
C           4.18600        21.68100         1.41400
O           3.46300        21.24100         2.57300
C           4.15400        20.10300         3.11000
O           3.35000        19.85500         4.27200
C           3.90100        20.27500         5.52900