# freq=raman b3lyp/6-31+g(2d,p) geom=connectivity

320 8249/8249.com

0 1
O           7.79200         7.76300        12.31200
C           8.32200         8.08800        13.60600
C           7.71800         9.39000        14.10500
O           7.93700        10.46300        13.17800
H           7.86000         9.89800        12.35700
C           8.26200         9.88400        15.43500
O           7.52400        11.02000        15.90800
H           7.75600        11.17300        16.86800
C           8.52400         5.65500        14.43200
O           8.05800         5.02100        13.23200
H           8.26900         4.04500        13.18000
C           8.05900         7.07500        14.70800
O           8.69900         7.48900        15.92400
C           8.18200         8.73100        16.42300
O           8.86300         9.10400        17.62900
C           8.28700         8.54400        18.81900
C           8.85600         7.23400        19.33700
O           8.69300         6.23700        18.31800
H           8.78100         6.63600        17.40500
C           8.41600         6.77600        20.71800
O           9.36900         5.77100        21.09400
H           9.27200         5.64300        22.08100
C           7.75100        10.92700        19.65400
O           8.22000        11.71700        18.55100
H           8.23500        12.66400        18.87400
C           8.46200         9.60600        19.89300
O           7.80100         9.08800        21.05600
C           8.51100         7.98400        21.63600
O           7.90700         7.66900        22.89800

