# freq=raman b3lyp/6-31+g(2d,p) geom=connectivity

450 8450/8450.com

0 1
C          11.30400         7.84900         2.20200
C          11.82900         9.14400         2.80000
O          12.66400         9.78200         1.82300
H          12.30900         9.59800         0.90600
C          12.56500         9.06000         4.12700
O          13.17400        10.29400         4.53100
H          12.63100        11.06400         4.19700
C          10.42100         5.72500         3.00900
O           9.52900         4.99100         3.86100
H           9.24200         4.22600         3.28400
C          10.46600         7.21600         3.30100
O          11.04800         7.27600         4.61100
C          11.50300         8.55100         5.08800
O          12.04000         8.29900         6.39500
C          11.28600         8.37300         7.61300
C          10.64700         7.04200         7.97500
O           9.70300         6.59000         6.99300
H          10.03600         6.64400         6.05100
C           9.95800         7.04600         9.33000
O           9.09600         5.96300         9.70800
H           8.29000         6.12200         9.13700
C          13.11600         9.93500         8.57000
O          12.48600        11.22400         8.53600
H          11.51900        11.23400         8.78900
C          12.31000         8.65300         8.70100
O          11.55600         8.72400         9.91900
C          10.85200         7.58400        10.43500
O          10.22900         7.76800        11.71400
C          11.12000         7.99100        12.81700
C          11.31300         9.45000        13.19500
O          12.30300        10.13800        12.41700
H          12.40800         9.62300        11.56600
C          11.79500         9.63900        14.62400
O          11.63600        10.98100        15.10800
H          12.18300        11.45700        14.41900
C           9.98500         5.70800        13.51900
O           9.33300         4.94300        14.54200
H           9.04100         4.06700        14.15800
C          10.36000         7.14800        13.82800
O          11.11200         7.28300        15.04200
C          11.22100         8.60800        15.58200
O          11.98900         8.38700        16.77400
C          11.21700         8.54600        17.97300
C          10.47900         7.26900        18.34000
O           9.41200         6.91800        17.44600
H           9.80500         6.87700        16.52700
C           9.91400         7.37000        19.74700
O           9.18100         6.15100        19.93800
H           8.51100         6.18800        19.19700
C          12.84500        10.32500        18.90800
O          11.91200        11.37300        19.20700
H          12.05500        12.21000        18.67800
C          12.25100         8.93000        19.01900
O          11.91100         8.63600        20.38200
C          11.10500         7.48800        20.68500
O          10.45100         7.84400        21.91300
C          11.16200         7.71400        23.15200
C          11.43700         9.14900        23.57200
O          12.29400         9.84400        22.65500
H          12.25900         9.54900        21.70100
C          11.97200         9.44900        24.96300
O          11.82300        10.83000        25.32400
H          11.98000        11.44900        24.55400
C           9.98000         5.72100        23.93000
O           9.02300         4.90900        24.62600
H           9.46100         4.01000        24.61200
C          10.21100         7.19500        24.21800
O          10.77500         7.34400        25.52900
C          11.17400         8.64700        25.97900
O          11.90500         8.54500        27.21000
C          11.21800         8.50300        28.46900
C          10.63700         7.12600        28.74800
O           9.70700         6.54500        27.82300
H          10.07600         6.72400        26.91100
C          10.10000         7.03100        30.16600
O           9.62600         5.71100        30.47300
H           8.65000         5.70700        30.25200
C          12.21900        10.46800        29.23800
O          12.99200        11.18100        30.21400
H          13.83600        10.64900        30.29000
C          12.17400         8.98100        29.55000
O          11.48600         8.99200        30.81000
C          11.08500         7.65500        31.14100
O          10.51100         7.60300        32.45500
C          11.26200         7.79400        33.66200
C          11.54700         9.16100        34.26300
O          12.62200         9.57300        33.40700
H          12.36100         9.47100        32.44700
C          12.17300         9.25900        35.64500
O          12.06000        10.64000        36.01700
H          12.49300        11.15500        35.27800
C          10.33100         5.58200        34.42000
O           9.50800         4.77400        35.27300
H           9.58500         3.84700        34.90500
C          10.50200         7.05600        34.75200
O          11.13000         7.13900        36.03900
C          11.31700         8.44600        36.60200
O          12.17600         8.26100        37.73600
C          11.42900         8.21200        38.96000
C          11.03000         6.80700        39.38100
O          10.29500         6.00400        38.44600
H          10.47300         6.36900        37.53200
C          10.22000         6.99100        40.65400
O           9.35700         5.88600        40.96000
H           8.79300         5.84600        40.13500
C          12.67100        10.35100        39.81700
O          13.64500        10.87700        40.73000
H          14.44200        10.28100        40.63500
C          12.30200         8.88800        40.00500
O          11.45000         8.87800        41.16000
C          11.16400         7.57600        41.69200
O          10.50000         7.95500        42.90600
C           5.29600         3.83700         0.44100
C           5.24100         2.43100         1.01600
O           4.58700         1.56500         0.07700
H           4.98600         1.84900        -0.79500
C           4.43900         2.44600         2.30700
O           4.32600         1.15000         2.91200
H           4.20000         0.45900         2.20000
C           6.18100         6.22500         1.14200
O           6.58300         7.06200         2.23600
H           6.77500         7.99200         1.92200
C           5.75800         4.81200         1.51100
O           4.82600         4.76300         2.60100
C           4.96500         3.50000         3.26800
O           4.22200         3.98500         4.39600
C           5.00200         3.75600         5.57800
C           5.59200         5.08700         6.01600
O           6.22800         5.92000         5.03500
H           5.65500         5.80700         4.22400
C           6.29500         4.85700         7.34400
O           6.96100         6.04700         7.78900
H           7.52500         6.29400         7.00100
C           3.80400         1.65600         6.33400
O           4.83000         0.69900         6.03300
H           4.84800         0.72200         5.03400
C           4.09000         3.12200         6.61600
O           4.74200         3.13100         7.89400
C           5.25200         4.39300         8.34800
O           5.79800         4.01900         9.62100
C           5.12200         4.25600        10.86500
C           4.77900         2.87200        11.39400
O           3.93900         2.18400        10.45600
H           4.55800         2.09600         9.67500
C           4.16900         2.93200        12.78500
O           3.95400         1.56300        13.15500
H           3.59800         0.98000        12.42400
C           6.51900         6.31300        11.63500
O           5.38300         7.18100        11.76000
H           5.65600         8.12900        11.59900
C           6.06000         4.88500        11.88300
O           5.50800         4.90800        13.20700
C           5.10300         3.64300        13.75000
O           4.31900         3.75800        14.94600
C           5.08800         3.72500        16.15800
C           5.49300         5.11900        16.60600
O           6.29700         5.90300        15.71300
H           6.02600         5.62600        14.79200
C           6.16600         5.05000        17.96700
O           6.83000         6.28800        18.26300
H           7.44500         6.53700        17.51500
C           4.35400         1.49100        16.87300
O           5.63400         0.88000        16.65200
H           5.53700        -0.01300        16.21300
C           4.44500         2.94900        17.29600
O           5.10800         3.08500        18.56100
C           5.26000         4.43600        19.02200
O           6.04500         4.29300        20.21400
C           5.23200         4.23000        21.39500
C           5.36100         2.78600        21.85200
O           4.73900         1.85500        20.95500
H           4.88900         2.19700        20.02800
C           4.89300         2.51200        23.27200
O           5.19600         1.17900        23.70800
H           4.99700         0.61400        22.90700
C           6.14700         6.43900        22.28600
O           6.59400         7.22400        23.40000
H           6.67300         8.14400        23.01700
C           5.91200         4.95900        22.54300
O           5.20100         4.86500        23.78600
C           5.44900         3.53100        24.25400
O           4.67300         3.58300        25.46000
C           5.52400         3.50500        26.61300
C           5.95000         4.85500        27.16600
O           6.52100         5.76500        26.21500
H           6.15000         5.67400        25.29000
C           6.73100         4.68700        28.45900
O           7.32600         5.88400        28.98100
H           8.06000         6.19600        28.37800
C           4.21700         1.44400        27.32200
O           5.25100         0.45600        27.44200
H           4.80400        -0.41800        27.25100
C           4.70300         2.83300        27.70200
O           5.46100         2.79000        28.91900
C           5.83100         4.04700        29.50300
O           6.58500         3.83000        30.70500
C           5.85600         3.82100        31.94100
C           5.71900         2.43500        32.54900
O           5.21000         1.52000        31.56800
H           5.46100         1.59100        30.60200
C           4.81900         2.37400        33.77300
O           4.52500         1.10700        34.38000
H           4.11000         0.57400        33.64300
C           6.47300         6.19200        32.55500
O           7.40100         6.91600        33.37700
H           7.26100         7.86400        33.09200
C           6.29600         4.76500        33.04800
O           5.41300         4.68700        34.17600
C           5.34400         3.38600        34.77800
O           4.55800         3.61800        35.95500
C           5.27600         3.46000        37.18800
C           5.62800         4.81700        37.77400
O           6.00000         5.77700        36.77400
H           5.76800         5.42000        35.86900
C           6.54900         4.69200        38.97700
O           7.22000         5.85500        39.48400
H           7.40900         6.39300        38.66300
C           4.53200         1.20100        37.82300
O           5.72200         0.42400        38.02100
H           5.58600        -0.47000        37.59600
C           4.53800         2.66000        38.25000
O           5.17200         2.67200        39.53700
C           5.56700         4.00000        39.91000
O           6.26200         3.89300        41.16100
C          13.93100        15.86900         3.00000
C          14.09300        17.25900         3.59400
O          14.52200        18.24800         2.64800
H          14.57200        17.88600         1.71700
C          14.85700        17.37700         4.90300
O          15.22400        18.64600         5.46200
H          15.80400        19.24700         4.91300
C          12.87100        13.69600         3.75300
O          11.94300        12.84200         4.43800
H          11.05300        13.29500         4.48500
C          13.23100        15.12500         4.12500
O          13.92400        15.14400         5.38200
C          14.14000        16.46900         5.88900
O          15.00800        15.94300         6.90300
C          14.36600        15.89800         8.18600
C          13.89900        14.57200         8.76400
O          12.74000        14.02200         8.12300
H          12.74600        14.25400         7.15000
C          13.42800        14.53100        10.20900
O          13.51700        13.20700        10.75500
H          13.09100        12.55400        10.12900
C          15.62500        18.00400         8.74000
O          14.73400        19.03200         8.28300
H          14.96900        19.05900         7.31100
C          15.17400        16.64100         9.23700
O          14.21100        16.82100        10.28600
C          14.21900        15.56900        10.98800
O          13.48800        15.99200        12.14900
C          14.09600        15.88700        13.44500
C          14.58700        17.21700        13.99400
O          15.31100        17.99800        13.03300
H          15.07800        17.67600        12.11600
C          15.35100        16.99800        15.29000
O          15.68100        18.29900        15.79800
H          15.96800        18.73600        14.94600
C          12.40000        14.16500        13.99600
O          12.93100        12.86700        13.69000
H          13.33700        12.77200        12.78100
C          13.12900        15.39600        14.50900
O          13.85600        15.11100        15.71300
C          14.39600        16.32300        16.26100
O          15.22100        15.76900        17.29700
C          14.44900        15.82400        18.50600
C          14.00800        14.47100        19.03800
O          13.18600        13.64500        18.20000
H          13.55900        14.01500        17.35000
C          13.40600        14.61700        20.42600
O          13.36000        13.29500        20.98300
H          12.73600        12.69400        20.48300
C          16.17400        17.66000        19.11100
O          15.53100        18.77400        18.47500
H          15.71400        18.60900        17.50600
C          15.44000        16.39000        19.51000
O          14.78000        16.65000        20.75700
C          14.25800        15.45800        21.36200
O          13.49700        16.09000        22.40200
C          14.05700        15.95800        23.71600
C          14.68100        17.24900        24.22200
O          15.45000        17.80700        23.14600
H          15.08300        17.42900        22.29600
C          15.47000        17.06400        25.50700
O          15.85400        18.34200        26.03500
H          16.16400        18.96400        25.31700
C          12.30800        14.42800        24.35800
O          12.70700        13.25000        23.64300
H          12.98100        13.65800        22.77200
C          13.26800        15.46500        24.91800
O          14.12400        15.08100        26.00300
C          14.57900        16.34500        26.50700
O          15.31500        15.89700        27.65400
C          14.69100        16.13600        28.92400
C          14.35900        14.79000        29.54600
O          13.45200        14.16500        28.62600
H          13.76100        14.10600        27.67700
C          13.64200        14.95100        30.87700
O          13.38700        13.71300        31.55600
H          13.23500        13.13100        30.75700
C          16.25300        18.08700        29.60100
O          15.25600        18.94800        29.03200
H          15.66300        19.09500        28.13000
C          15.51900        16.81700        30.00100
O          14.64100        17.11400        31.09600
C          14.51100        15.84300        31.74800
O          13.87800        16.14900        32.99900
C          14.62700        16.07600        34.22200
C          14.68600        17.52100        34.68900
O          15.51800        18.37700        33.89200
H          15.34900        18.23000        32.91700
C          15.08200        17.54000        36.15600
O          14.59500        18.79600        36.65000
H          14.52500        19.48700        35.93000
C          13.21800        14.06200        34.95900
O          13.98100        12.96700        34.43100
H          14.13800        12.96800        33.44400
C          13.87200        15.37900        35.34200
O          14.68600        15.25200        36.51700
C          14.52100        16.53200        37.14600
O          15.17900        16.29800        38.39900
C          14.39200        16.21500        39.59600
C          14.26700        14.77100        40.05400
O          13.70900        13.73800        39.22900
H          13.76200        14.04200        38.27800
C          13.47400        14.74600        41.35100
O          13.33700        13.44000        41.92900
H          13.44300        12.67000        41.30000
C          15.95400        18.16800        40.53200
O          16.15200        18.97700        41.70100
H          15.94100        19.92900        41.48200
C          15.04200        16.98300        -1.09700
O          14.17000        17.06800         0.04000
C          14.00100        15.74200         0.56100
O          13.22100        15.70400         1.76500
C           8.31300        12.05200        41.22200
C           7.66700        10.73700        41.62800
O           6.64200        10.19300        40.78300
H           7.18400         9.80400        40.03800
C           7.16600        10.97400         1.24200
O           6.57200         9.77600         1.76000
H           5.57800         9.87500         1.71700
C           9.89400        13.91300        41.76100
O           9.10900        15.11300        41.82300
H           9.72500        15.82300        41.48100
C           9.28400        12.62600         0.37500
O           8.69000        12.68700         1.68000
C           8.26400        11.41700         2.19500
O           7.69800        11.56600         3.50500
C           8.36100        11.65500         4.77500
C           8.69500        13.10200         5.10200
O           9.57300        13.82800         4.23100
H           9.03100        13.97900         3.40500
C           9.33800        13.26000         6.47000
O           9.26600        14.57700         7.03700
H           9.63100        15.24000         6.38300
C           6.92500         9.67300         5.49700
O           7.73500         8.48900         5.48800
H           7.15800         7.68100         5.36400
C           7.53400        11.01200         5.87700
O           8.45500        11.02600         6.97700
C           8.62100        12.36400         7.46700
O           9.19300        11.97400         8.72400
C           8.25000        12.05500         9.80200
C           7.46000        10.79900        10.13300
O           6.43500        10.71900         9.13200
H           6.95700        10.62700         8.28400
C           6.79600        11.04800        11.47800
O           6.12000         9.85800        11.90900
H           5.42500        10.05600        12.60000
C           9.46600        14.11900        10.66700
O           8.70100        15.31300        10.45300
H           9.08100        15.74800         9.63600
C           9.04000        12.68500        10.93700
O           8.20900        12.70800        12.10700
C           7.82200        11.39700        12.54400
O           7.16400        11.50900        13.81400
C           7.92300        11.60000        15.02900
C           8.10800        13.00800        15.57000
O           8.44800        13.97700        14.56800
H           8.37700        13.59900        13.64400
C           9.08800        12.87200        16.72400
O           9.46100        14.15100        17.25800
H           9.60100        14.90700        16.61900
C           6.31400         9.68300        15.67900
O           7.17400         8.55100        15.48300
H           6.63200         7.71500        15.56900
C           7.03100        10.96200        16.08100
O           7.70200        10.93800        17.34900
C           8.30200        12.15700        17.81200
O           9.06800        11.76200        18.95900
C           8.34900        11.95200        20.18600
C           7.68400        10.74200        20.82000
O           7.15300         9.71700        19.96700
H           7.73300         9.81700        19.15800
C           6.87900        10.93400        22.09500
O           6.40000         9.71500        22.68100
H           5.81500         9.31700        21.97400
C           9.66400        13.96000        20.95000
O           8.65700        14.94800        20.68300
H           9.17800        15.73400        20.35100
C           9.13600        12.58500        21.32300
O           8.47100        12.74100        22.58500
C           7.83700        11.55800        23.09500
O           7.25500        12.08700        24.29500
C           7.97100        11.94400        25.53000
C           8.22900        13.35000        26.04700
O           8.95900        14.19800        25.14800
H           8.56600        13.98700        24.25400
C           8.97500        13.14800        27.35600
O           9.11600        14.46000        27.91900
H           9.87600        14.88100        27.42400
C           6.63500         9.85600        26.18400
O           6.29500         9.04200        27.31600
H           6.10200         8.20300        26.80800
C           7.23200        11.18400        26.62000
O           8.01900        11.02200        27.80800
C           8.26300        12.30600        28.40100
O           8.94200        11.82900        29.57200
C           8.24900        11.80500        30.82800
C           7.75100        10.42000        31.21000
O           7.12500         9.83800        30.05800
H           7.64700        10.05700        29.23300
C           6.99300        10.51900        32.52300
O           6.42400         9.28100        32.97400
H           5.51600         9.46300        33.35200
C          10.27300        13.38700        31.78000
O          10.06900        14.80200        31.90500
H           9.93700        15.16400        30.98300
C           9.16200        12.35800        31.91000
O           8.30100        12.51100        33.04700
C           7.93200        11.20200        33.50400
O           7.29000        11.50400        34.75100
C           7.95800        11.57200        36.02000
C           8.43100        12.93400        36.50300
O           9.02500        13.85700        35.57900
H           8.63300        13.70600        34.67200
C           9.11000        12.94100        37.86300
O           9.09400        14.26400        38.42000
H           9.43200        14.91500        37.74100
C           7.05600         9.35100        36.64300
O           6.46400         8.46100        37.60100
H           6.23500         7.62200        37.10700
C           7.22200        10.79300        37.09700
O           8.15900        10.65000        38.17400
C           8.37400        11.94800        38.74800
O           9.01400        11.72700        40.01300
C          16.61700        23.14500         2.19100
C          17.41800        24.29000         2.79000
O          18.44000        24.71700         1.87900
H          17.93800        25.09500         1.10100
C          18.05200        24.32000         4.17200
O          18.60000        25.62300         4.41900
H          19.52500        25.66600         4.04300
C          14.87300        21.66100         3.13200
O          15.65900        20.47500         3.31800
H          15.21200        19.60400         3.11700
C          15.57500        23.00100         3.28800
O          16.09600        22.89100         4.62000
C          16.89000        23.98800         5.09500
O          17.45400        23.58300         6.35000
C          16.73100        23.62100         7.58900
C          16.54400        22.18500         8.05200
O          15.40700        21.75200         7.29100
H          15.69500        21.82100         6.33600
C          16.05700        22.06100         9.48700
O          16.07500        20.67100         9.84200
H          15.39800        20.16800         9.30400
C          17.34000        25.97800         8.24000
O          18.14000        26.75600         9.14200
H          18.34500        27.61900         8.68100
C          17.48500        24.50200         8.57200
O          16.92600        24.28500         9.87600
C          16.90000        22.94500        10.39100
O          16.07300        23.22600        11.53000
C          16.88700        23.24300        12.71200
C          17.34700        24.63700        13.10500
O          18.25400        25.34600        12.24700
H          17.87400        25.58300        11.35300
C          18.05100        24.73100        14.44900
O          18.38300        26.07100        14.84200
H          18.77000        26.59900        14.08500
C          15.38500        21.41300        13.50300
O          16.05400        20.18100        13.81300
H          15.63200        19.39900        13.35400
C          16.12500        22.67900        13.90000
O          16.88800        22.68900        15.11600
C          17.17200        24.04700        15.48300
O          17.83100        23.89000        16.74800
C          16.97800        23.83600        17.90100
C          16.59200        22.41300        18.27000
O          15.45200        22.05100        17.47700
H          15.90800        21.88600        16.60200
C          16.12800        22.23300        19.70700
O          16.11000        20.86600        20.14400
H          15.75700        20.23800        19.45100
C          17.81500        25.99600        18.63200
O          18.42200        27.02700        19.42400
H          18.27300        27.94100        19.04800
C          17.75000        24.52600        19.01300
O          17.13300        24.44700        20.30700
C          16.89800        23.08700        20.70000
O          16.08900        23.45100        21.82800
C          16.82600        23.14300        23.02100
C          17.55300        24.36700        23.55300
O          18.65200        24.72200        22.70100
H          18.25400        24.96400        21.81600
C          18.22400        24.19100        24.90500
O          18.96200        25.36400        25.27900
H          19.79500        25.36800        24.72600
C          15.30300        21.36900        23.72600
O          16.23300        20.31800        24.02700
H          15.87600        19.51800        23.54500
C          15.83600        22.74200        24.10200
O          16.41400        22.67900        25.41400
C          17.22200        23.73500        25.95400
O          17.98600        23.40400        27.12200
C          17.05900        23.63800        28.19300
C          16.62100        22.29400        28.75100
O          15.87400        21.45300        27.86100
H          16.22900        21.62300        26.94200
C          15.90500        22.26800        30.09100
O          15.69400        20.95900        30.63900
H          15.56000        20.33400        29.87000
C          18.35600        25.77100        28.99600
O          18.80800        26.47700        30.16100
H          18.89600        27.43700        29.89200
C          17.83700        24.37000        29.27500
O          16.99900        24.47400        30.43500
C          16.74700        23.17100        30.97900
O          16.09100        23.58300        32.18700
C          16.84000        23.18800        33.34500
C          17.79600        24.29000        33.77300
O          18.88100        24.55000        32.87100
H          18.55300        25.02000        32.05100
C          18.41900        24.08200        35.14400
O          18.94400        25.31400        35.65800
H          19.70600        25.59500        35.07400
C          15.07600        21.61800        34.29000
O          14.41900        20.98500        35.39700
H          13.57500        21.51700        35.46400
C          15.90200        22.87700        34.50000
O          16.65300        22.64100        35.70000
C          17.36400        23.78500        36.19700
O          17.75600        23.52000        37.55100
C          16.99400        23.77500        38.74000
C          16.30700        22.45600        39.05200
O          15.43000        21.95500        38.03300
H          16.01800        22.04700        37.22900
C          15.75300        22.42500        40.46700
O          15.10400        21.20000        40.83900
H          14.30200        21.24300        40.24300
C          17.93700        25.86000        39.63100
O          18.89800        26.53700        40.45400
H          18.67500        27.50300        40.32400
C          17.75500        24.37700        39.91000
O          17.04500        24.23700        41.14900
C          16.74900        22.88200        41.52000
O          16.08300        23.26300        42.73200
C          10.59600        19.71200        41.42500
C          10.40100        18.38200        42.13600
O          10.24500        17.42900        41.07500
H          10.59200        17.94900        40.29400
C           9.34800        18.51400         1.45800
O           9.62900        17.34900         2.24700
H           9.39400        16.55900         1.68100
C          11.51700        22.09600         0.30900
O          10.65600        23.21700         0.06400
H          11.25400        24.01400        -0.01700
C          11.03500        20.70400         0.68300
O          10.05000        20.89800         1.70800
C           9.99800        19.59500         2.30700
O           9.35200        19.90400         3.55000
C          10.22100        19.66900         4.66800