# freq=raman b3lyp/6-31+g(2d,p) geom=connectivity

473 7000.com

0 1
C           8.27600         7.91000        23.97000
C           7.67300         9.21800        24.45500
O           7.98400        10.26100        23.51900
H           7.84400         9.89700        22.59800
C           8.13800         9.61200        25.84700
O           7.39400        10.72800        26.35600
H           7.79400        10.80000        27.27000
C           8.69300         5.51300        24.88800
O           8.35900         4.77000        23.70600
H           8.24900         3.81100        23.96600
C           8.09500         6.89600        25.08800
O           8.66100         7.38000        26.31500
C           7.96400         8.50300        26.87300
O           8.83400         8.77400        27.98100
C           8.22900         8.22900        29.16300
C           8.87300         6.95700        29.68800
O           8.81100         5.86400        28.76000
H           8.97200         6.28200        27.86600
C           8.17800         6.52500        30.96800
O           8.78600         5.35700        31.53700
H           8.49200         5.27800        32.49000
C           7.75000        10.61000        30.01300
O           8.27400        11.35800        28.90700
H           8.15700        12.31600        29.16900
C           8.43700         9.27500        30.24700
O           7.80700         8.79800        31.44500
C           8.38300         7.61200        32.01100
O           7.52800         7.37200        33.13900
C           8.21100         7.70400        34.35600

