# freq=raman b3lyp/6-31+g(d,p) geom=connectivity

450 6000.com

0 1
 O                 10.49000000    8.02400000   22.11500000
 C                 11.20800000    7.73300000   23.32200000
 C                 11.74200000    9.07600000   23.79300000
 O                 12.89500000    9.32100000   22.97400000
 H                 12.57800000    9.34700000   22.02600000
 C                 12.10400000    9.14100000   25.26800000
 O                 11.83600000   10.50400000   25.62900000
 H                 12.32700000   11.28900000   25.25300000
 C                 10.12300000    5.70300000   24.05900000
 O                  9.33500000    4.70600000   24.72500000
 H                  9.32700000    3.88200000   24.15800000
 C                 10.33000000    7.16400000   24.42500000
 O                 11.09400000    7.02100000   25.63100000
 C                 11.26200000    8.31600000   26.22700000
 O                 11.95200000    7.88400000   27.40900000
 C                 11.02400000    8.09200000   28.48300000
 C                 10.30700000    6.83300000   28.94400000
 O                  9.62300000    6.06700000   27.94200000
 H                 10.02900000    6.32700000   27.06700000
 C                  9.51600000    7.00600000   30.23000000
 O                  8.84500000    5.78900000   30.58600000
 H                  8.10000000    5.67200000   29.92900000
 C                 12.34900000   10.02200000   29.53100000
 O                 13.09400000   10.81100000   30.47000000
 H                 13.96700000   10.35800000   30.64700000
 C                 11.82800000    8.60100000   29.66900000
 O                 11.02100000    8.83600000   30.83200000
 C                 10.52400000    7.55000000   31.23000000
 O                  9.78300000    7.91700000   32.40300000
 H                 10.39290123    8.13837073   33.11054186
 H                 11.11332048    8.19512354   21.40521953
 H                  9.74303367    5.72532510   23.05898641
 H                 11.10945199    5.28997796   24.02399621
 H                  9.41278852    7.69753791   24.56269674
 H                 12.01951817    7.06668753   23.11617012
 H                 11.00866777    9.82760352   23.58753469
 H                 13.14237014    8.92166342   25.40430450
 H                 10.32313379    8.77777596   26.45103838
 H                 12.12886553   10.50283173   28.60081633
 H                 12.56913447    9.54116827   30.46118367
 H                 12.62853301    7.92931487   29.89896954
 H                 10.30374510    8.82940174   28.19599554
 H                 11.11090071    6.18926488   29.23425633
 H                  8.77223452    7.75755424   30.06605145
 H                 11.30901194    6.85579235   31.44617584

 1 2 1.0 31 1.0
 2 3 1.0 12 1.0 35 1.0
 3 4 1.0 6 1.0 36 1.0
 4 5 1.0
 5
 6 7 1.0 14 1.0 37 1.0
 7 8 1.0
 8
 9 10 1.0 12 1.0 32 1.0 33 1.0
 10 11 1.0
 11
 12 13 1.0 34 1.0
 13 14 1.0
 14 15 1.0 38 1.0
 15 16 1.0
 16 17 1.0 26 1.0 42 1.0
 17 18 1.0 20 1.0 43 1.0
 18 19 1.0
 19
 20 21 1.0 28 1.0 44 1.0
 21 22 1.0
 22
 23 24 1.0 26 1.0 39 1.0 40 1.0
 24 25 1.0
 25
 26 27 1.0 41 1.0
 27 28 1.0
 28 29 1.0 45 1.0
 29 30 1.0
 30
 31
 32
 33
 34
 35
 36
 37
 38
 39
 40
 41
 42
 43
 44
 45

