# freq=raman b3lyp/6-31+g(2d,p) geom=connectivity

400 6907/6907.com

0 1
C           9.75300         8.18100         3.03100
C           9.35700         9.52400         3.62400
O           9.94900        10.41000         2.66400
H           9.73300        10.16600         1.71800
C          10.03900         9.74800         4.96500
O           9.83800        11.01500         5.60800
H          10.12900        11.07200         6.56300
C           9.74500         5.65700         3.68200
O           9.12600         4.87100         2.65300
H           9.29500         3.88600         2.66000
C           9.38200         7.09200         4.02500
O           9.90900         7.29400         5.34500
C           9.60100         8.59900         5.85700
O          10.38200         8.63600         7.06000
C           9.61200         8.41700         8.25100
C           9.83500         7.00300         8.76300
O           9.52300         6.02500         7.76000
H          10.00100         6.30700         6.92700
C           9.19700         6.64200        10.09500
O           9.56300         5.35400        10.61300
H           9.38300         5.26800        11.59300
C           9.89600        10.81100         9.17700
O          10.50700        11.49300         8.07200
H          10.67700        12.43700         8.35600
C          10.18100         9.32500         9.32800
O           9.51600         9.04300        10.56800
C           9.61000         7.71100        11.09300
O           8.80500         7.84800        12.27300
C           9.65500         8.25500        13.35400
C           9.23100         9.61000        13.89700
O           9.79900        10.48300        12.91000
H           9.70800        10.12500        11.98100
C           9.58900         9.97500        15.32900
O           8.88700        11.14400        15.77500
H           9.52600        11.46700        16.47200
C           9.65100         5.83300        14.27900
O           8.83100         5.25500        13.25400
H           8.60300         4.32200        13.53000
C           9.22200         7.28200        14.43900
O           9.95500         7.59800        15.63200
C           9.48600         8.79100        16.27600
O          10.45200         8.92800        17.32800
C          10.09400         8.48200        18.64300
C          10.63800         7.18200        19.21400
O          10.33600         6.25000        18.16600
H          10.29000         6.82200        17.34700
C           9.94400         6.85200        20.52600
O          10.28900         5.58700        21.10900
H           9.92900         5.52700        22.04000
C           9.92200        10.97500        19.36800
O          10.26400        11.59300        18.11800
H          10.31000        12.54600        18.41900
C          10.36900         9.55700        19.68200
O           9.69200         9.24300        20.90800
C          10.13900         8.01000        21.49100
O           9.31000         7.93100        22.66000
C           9.92200         8.10300        23.94600
C           9.65300         9.51800        24.43000
O          10.07700        10.58200        23.56600
H           9.86600        10.32100        22.62400
C          10.43500         9.82800        25.69600
O           9.87500        10.95600        26.38300
H          10.38100        10.95200        27.24600
C           9.69300         5.76900        24.68600
O           9.17500         5.16400        23.49200
H           9.32000         4.18100        23.60500
C           9.33500         7.20700        25.02500
O           9.98900         7.53100        26.26100
C           9.82700         8.88100        26.71800
O          10.56300         8.80900        27.94800
C           9.90400         8.56200        29.19800
C           9.96800         7.10700        29.63400
O           9.68400         6.14900        28.60400
H           9.79400         6.56000        27.69900
C           9.21700         6.97100        30.94800
O           8.95400         5.62400        31.36900
H           8.80200         5.73400        32.35100
C          10.21600        10.89100        30.15400
O          10.71200        11.47400        28.94000
H          10.71500        12.45500        29.13700
C          10.62600         9.42900        30.21600
O          10.28800         9.09300        31.57000
C          10.01100         7.74800        31.98500
O           9.23400         8.02400        33.16000
C           9.88600         8.06200        34.43800
C           9.50700         9.43500        34.96900
O           9.77800        10.49800        34.04300
H           9.82400        10.05800        33.14600
C          10.10500         9.78200        36.32300
O           9.43300        10.90000        36.92000
H          10.02700        11.23000        37.65300
C           9.48400         5.65600        34.92700
O           8.47900         5.10500        34.06400
H           8.27300         4.13900        34.22300
C           9.28800         7.07700        35.43000
O          10.03500         7.30100        36.63500
C           9.74100         8.59000        37.19200
O          10.42300         8.68600        38.45100
C           9.69500         8.42200        39.65900
C          10.16900         7.06600        40.15700
O           9.75000         6.07000        39.21300
H          10.10700         6.38400        38.33400
C           9.60000         6.83300        -0.40900
O          10.13100         5.63400         0.17600
H           9.66300         5.58200         1.05800
C           9.98900        10.92900        40.32500
O          10.78500        11.47300        39.26200
H          10.79800        12.46200        39.41100
C          10.20300         9.41200        -1.29500
O           9.60900         9.15600        -0.01400
C           9.99900         7.91200         0.58500
O           9.16600         7.89500         1.75300
C           4.91400         4.22500         0.55300
C           4.46600         2.89700         1.14200
O           3.79200         2.10800         0.15100
H           3.84600         2.60500        -0.71500
C           3.69300         2.96700         2.44900
O           3.49800         1.64100         2.96200
H           3.20100         1.11200         2.16600
C           5.98800         6.40400         1.20300
O           5.06200         7.49800         1.26600
H           5.46200         8.14100         0.61300
C           5.64200         4.99100         1.64600
O           4.95400         4.95300         2.90400
C           4.61900         3.66200         3.43400
O           3.92400         3.93200         4.66000
C           4.73200         4.00100         5.84400
C           4.79700         5.45300         6.28700
O           5.58200         6.18300         5.33300
H           5.15400         5.97900         4.45300
C           5.40600         5.57400         7.67500
O           5.46200         6.94900         8.08000
H           5.94300         7.54500         7.43500
C           3.86900         1.73000         6.54900
O           4.96900         0.80900         6.58800
H           4.89400         0.11400         5.87300
C           3.99400         3.20200         6.90500
O           4.61500         3.38000         8.18700
C           4.61600         4.73300         8.66500
O           5.37300         4.62500         9.87900
C           4.62000         4.59700        11.10000
C           4.56300         3.15700        11.58500
O           4.06700         2.13000        10.71500
H           4.46200         2.22600         9.80100
C           4.15300         3.02200        13.04300
O           4.58700         1.71900        13.45900
H           4.23800         1.03400        12.81900
C           5.52400         6.82800        11.81700
O           4.33700         7.61800        11.65900
H           4.70000         8.44500        11.23000
C           5.41000         5.35100        12.15700
O           4.80600         5.29000        13.45800
C           4.78700         3.97800        14.04000
O           4.12000         4.08000        15.30600
C           5.11300         4.09600        16.34200
C           5.08900         5.48400        16.96000
O           5.60900         6.41900        16.00300
H           5.16300         6.23000        15.12800
C           5.99800         5.41900        18.17600
O           5.96100         6.66300        18.89000
H           6.41500         7.24200        18.21300
C           4.17200         1.78600        16.89600
O           5.30200         1.01000        16.47100
H           5.03100         0.32700        15.79300
C           4.58900         3.15300        17.41300
O           5.39300         3.08300        18.60000
C           5.38800         4.41300        19.13900
O           6.08100         4.39800        20.39500
C           5.22500         4.13200        21.51600
C           4.99600         2.71100        22.00400
O           4.74800         1.73900        20.97800
H           5.30000         1.98200        20.18000
C           3.95500         2.75000        23.11100
O           3.32100         1.52100        23.49500
H           3.11200         1.06400        22.63000
C           6.25600         6.27000        22.37000
O           5.27200         7.15900        21.82300
H           5.38900         7.21900        20.83200
C           5.64700         4.92700        22.74100
O           4.68200         4.92700        23.80200
C           4.59600         3.55800        24.22700
O           4.08700         3.65600        25.56500
C           4.99200         3.75500        26.67400
C           5.11600         5.19000        27.16100
O           5.46000         6.21500        26.21700
H           5.40700         5.77300        25.32200
C           5.70300         5.33800        28.55500
O           5.25000         6.62100        29.01300
H           5.63200         7.36400        28.46400
C           4.14100         1.41300        27.27100
O           5.25800         0.62800        26.83000
H           4.98300        -0.16400        26.28500
C           4.32500         2.85800        27.70500
O           5.03700         2.95500        28.94700
C           5.05900         4.29700        29.45600
O           5.75000         4.10800        30.69900
C           4.93800         4.12900        31.88200
C           4.79900         2.75000        32.50600
O           4.33100         1.78600        31.55100
H           4.70300         1.96800        30.64100
C           3.93400         2.76200        33.75500
O           3.80600         1.42700        34.26600
H           4.13300         0.66700        33.70600
C           5.78200         6.47700        32.48200
O           4.83700         7.51500        32.18200
H           5.24900         8.17600        31.55600
C           5.44600         5.07400        32.95900
O           4.62700         5.04900        34.13700
C           4.70400         3.71400        34.65600
O           4.03200         3.99300        35.89300
C           4.82200         4.00400        37.09100
C           5.07800         5.37600        37.69400
O           5.71200         6.11300        36.63900
H           5.21500         5.82800        35.82000
C           5.79800         5.34700        39.03200
O           5.94700         6.67900        39.54600
H           6.54000         7.21000        38.94000
C           4.05900         1.69900        37.65100
O           5.02200         0.67100        37.37600
H           4.51200        -0.06600        36.93300
C           4.26400         3.10700        38.18400
O           4.97900         3.19100        39.42500
C           5.02600         4.49400        40.02500
O           5.66200         4.30100        41.29700
C          10.55100        15.96500         2.89900
C          10.49200        17.42000         3.33300
O          10.99100        18.36300         2.37300
H          10.72900        18.02800         1.46800
C          11.11100        17.70500         4.69200
O          10.61000        18.98900         5.09200
H          11.08000        19.19100         5.95100
C          10.06400        13.63700         3.83700
O           9.63300        12.88700         2.69200
H          10.07000        11.99300         2.79000
C          10.02600        15.14000         4.06300
O          10.71200        15.38500         5.30000
C          10.70300        16.73400         5.78800
O          11.75100        16.71000         6.76800
C          11.02300        16.48100         7.98300
C          11.32800        15.12600         8.60000
O          11.29200        14.08700         7.61000
H          11.45200        14.51300         6.72000
C          10.52800        14.86400         9.86500
O          10.83700        13.61000        10.48900
H          10.33100        13.41600        11.33000
C          10.94100        18.95100         8.72600
O          11.43000        19.59800         7.54300
H          11.32400        20.58000         7.69800
C          11.27500        17.50900         9.07400
O          10.53400        17.24100        10.27300
C          10.87700        15.97100        10.84600
O          10.04500        15.86800        12.01100
C          10.66800        16.01200        13.29600
C          10.36600        17.43400        13.74000
O          11.03900        18.41900        12.94300
H          10.72000        18.35700        11.99700
C          10.78100        17.79900        15.15500
O          10.54700        19.11000        15.69200
H          11.09500        19.28900        16.50800
C          10.07800        13.64700        13.98000
O           9.44400        13.04600        12.84200
H           9.64900        12.09200        13.05900
C           9.98800        15.12400        14.32600
O          10.56900        15.49500        15.58500
C          10.27900        16.77700        16.16200
O          11.16000        16.81800        17.29400
C          10.47200        16.56400        18.52700
C          10.90300        15.19400        19.02500
O          10.69700        14.17700        18.03300
H          10.98100        14.47800        17.12300
C          10.38400        14.81100        20.40200
O          10.75200        13.52700        20.92700
H          10.54100        13.37700        21.89300
C          10.79200        18.94500        19.39500
O          11.27400        19.76100        18.31700
H          11.22200        20.72900        18.56300
C          11.08200        17.46600        19.58800
O          10.53700        17.19100        20.88600
C          10.90300        15.88200        21.34700
O          10.25000        15.75900        22.61900
C          10.90800        16.08000        23.85400
C          10.74600        17.53900        24.24900
O          11.39200        18.30700        23.22400
H          11.08600        17.92800        22.35100
C          11.35000        17.92200        25.59000
O          10.92400        19.25400        25.91000
H          11.31300        19.50700        26.79600
C          10.63900        13.79700        25.01500
O          10.14000        13.16100        23.83000
H          10.26200        12.18700        24.01900
C          10.36300        15.29100        25.03300
O          10.92800        15.56900        26.32300
C          10.88300        16.96100        26.67200
O          11.54300        17.11100        27.93700
C          10.96200        16.60900        29.14800
C          10.96400        15.17300        29.64800
O          11.02400        14.14800        28.64600
H          11.23300        14.66700        27.81700
C          10.07900        15.06900        30.88000
O          10.04000        13.72700        31.38600
H           9.73600        13.65000        32.33600
C          11.62600        18.91000        30.00300
O          12.23200        19.66000        28.94000
H          11.83300        20.55900        28.75900
C          11.59400        17.41400        30.27200
O          10.93200        17.32800        31.54200
C          10.72500        15.96100        31.92800
O           9.94400        16.02900        33.13000
C          10.64900        16.25800        34.35800
C          10.45700        17.67200        34.88100
O          11.08800        18.60700        33.99400
H          10.98600        18.24800        33.06600
C          11.03700        17.88900        36.26900
O          10.51100        19.14900        36.71000
H          10.89300        19.40200        37.59900
C          10.13300        13.84600        35.33600
O           9.72800        13.22500        34.10800
H           9.82000        12.24300        34.27700
C          10.05700        15.36100        35.43400
O          10.72500        15.56400        36.68800
C          10.57200        16.85900        37.28700
O          11.41100        16.71600        38.44200
C          10.74600        16.50400        39.69500
C          11.07400        15.09400        40.16000
O          10.62200        14.14200        39.18600
H          10.61900        14.53300        38.26500
C          10.58300        14.58200        -0.44000
O          11.19700        13.36100        -0.00200
H          10.75100        13.10000         0.85400
C          10.85800        18.88900        40.59000
O          10.99800        19.60600        39.35400
H          11.00100        20.57600        39.60100
C          11.22300        17.37900        -1.13900
O          10.46900        16.94400         0.00200
C          10.91400        15.69200         0.54400
O           9.98000        15.61100         1.63100
C           5.69100        12.27600         0.35600
C           5.97000        10.94000         1.02500
O           5.52300         9.92000         0.12000
H           5.73800        10.20800        -0.81300
C           5.27000        10.78200         2.36400
O           5.68400         9.56000         2.99200
H           5.32100         8.71700         2.59700
C           6.31100        14.70700         0.94600
O           5.28400        15.66500         1.23700
H           5.70500        16.41300         0.72300
C           6.14100        13.27100         1.41400
O           5.47200        13.12300         2.67500
C           5.61600        11.87300         3.36500
O           4.79400        11.84300         4.54000
C           5.49100        12.03600         5.78000
C           5.49200        13.47700         6.26400
O           6.01600        14.41800         5.31600
H           5.87700        14.03400         4.40300
C           6.27800        13.54700         7.56300
O           6.28700        14.87600         8.10500
H           6.56800        15.48600         7.36400
C           4.83800         9.65500         6.40000
O           5.95100         8.79600         6.11100
H           5.60400         8.12900         5.45100
C           5.06300        11.07900         6.88000
O           5.86000        11.22300         8.06500
C           5.74100        12.55600         8.58300
O           6.47500        12.39500         9.80500
C           5.70700        12.48900        11.01400
C           5.63800        11.11500        11.66000
O           5.44100        10.02700        10.74600
H           5.71100        10.37000         9.84600
C           4.79700        11.13400        12.92600
O           4.66400         9.81900        13.48300
H           4.49200         9.08500        12.82600
C           6.73300        14.76000        11.53100
O           5.65400        15.69700        11.40000
H           5.95500        16.47400        10.84800
C           6.36900        13.37900        12.05300
O           5.66500        13.32600        13.30200
C           5.51300        12.03800        13.91600
O           4.83700        12.36400        15.13900
C           5.67900        12.36600        16.30100
C           5.75800        13.77800        16.85900
O           6.17700        14.64100        15.79100
H           6.01400        14.18300        14.91700
C           6.63200        13.90500        18.09600
O           6.60800        15.27300        18.52700
H           6.71700        15.99900        17.84700
C           5.10400         9.95200        17.00100
O           6.25000         9.09800        16.87100
H           6.15600         8.37500        16.18600
C           5.19300        11.42000        17.38700
O           5.91700        11.58100        18.61500
C           6.07400        12.91900        19.10900
O           6.87100        12.67000        20.27600
C           6.06000        12.55800        21.45500
C           6.09700        11.11500        21.93300
O           5.50700        10.17800        21.02100
H           5.65700        10.49200        20.08400
C           5.30500        10.90800        23.21400
O           5.70500         9.62200        23.70900
H           5.46100         9.03800        22.93500
C           6.89000        14.87700        22.35900
O           5.79100        15.64100        21.84200
H           6.13800        16.54100        21.57800
C           6.48800        13.43400        22.62000
O           5.61000        13.24200        23.73900
C           5.81300        11.91100        24.23700
O           5.07400        11.81000        25.46300
C           5.85000        11.98300        26.65800
C           6.11400        13.35200        27.26400
O           6.44100        14.36300        26.30000
H           6.18400        14.00800        25.40000
C           6.91300        13.41200        28.55500
O           6.74900        14.74600        29.05900
H           7.05000        15.39500        28.36100
C           4.78200         9.75700        27.26900
O           5.81200         8.76300        27.37200
H           5.50100         8.01400        26.78700
C           5.15700        11.15600        27.72800
O           5.94900        11.14100        28.92500
C           6.06800        12.48500        29.41300
O           6.80300        12.31700        30.63400
C           5.94700        12.33800        31.78600
C           5.79000        10.91100        32.28700
O           5.05200        10.25600        31.24500
H           5.43800        10.39800        30.33300
C           5.16700        10.85500        33.67200
O           5.09400         9.50300        34.14600
H           4.69100         9.01100        33.37400
C           6.61600        14.63500        32.30800
O           5.53200        15.52800        32.00900
H           5.76600        16.06100        31.19600
C           6.48400        13.23700        32.88800
O           5.77900        13.21700        34.13700
C           5.89200        11.85100        34.56200
O           5.30200        11.85200        35.87000
C           6.07100        11.88700        37.08200
C           5.99500        13.28000        37.68400
O           6.39200        14.25900        36.71300
H           6.13400        13.95500        35.79700
C           6.74200        13.47400        38.99400
O           6.94500        14.74200        39.63400
H           6.99800        15.44800        38.92800
C           5.30000         9.57000        37.76000
O           6.51000         8.80500        37.65900
H           6.25600         7.97200        37.16700
C           5.53900        11.00500        38.19900
O           6.18100        11.13400        39.47600
C           6.10100        12.48500        39.95400
O           6.65400        12.48200        41.27800
C          11.41200        24.22100         2.94200
C          11.15000        25.64800         3.39400
O          11.57700        26.60300         2.41100
H          11.15500        26.27100         1.56700
C          11.69600        25.83600         4.80000
O          11.26000        27.12000         5.27200
H          11.68600        27.22800         6.17100
C          11.27500        21.75100         3.76100
O          10.61100        21.11100         2.66200
H          10.66100        20.11200         2.66800
C          11.01200        23.22500         4.01900
O          11.77200        23.43500         5.21800
C          11.39600        24.70500         5.77000
O          12.23000        24.90800         6.92000
C          11.52500        24.61800         8.13500
C          11.95800        23.27700         8.70500
O          11.67900        22.25400         7.73900
H          12.06700        22.62700         6.89600
C          11.38000        23.03400        10.08900
O          11.77000        21.82800        10.76200
H          11.20000        21.70700        11.57500
C          11.46700        27.16600         8.81600
O          12.14500        27.77500         7.70800
H          11.74900        28.68700         7.81300
C          11.79200        25.71900         9.14900
O          11.21900        25.48900        10.44400
C          11.57700        24.22300        11.01700
O          10.65000        24.16900        12.11100
C          11.35600        24.37300        13.34300
C          11.02000        25.74200        13.91100
O          10.96500        26.80200        12.94500
H          10.93600        26.37100        12.04300
C          11.86600        26.01600        15.14400
O          11.73300        27.35200        15.65100
H          12.28100        27.54700        16.46400
C          11.42000        21.96100        14.25600
O          10.97800        21.17000        13.14400
H          11.00800        20.19300        13.35500
C          11.10900        23.42700        14.50700
O          11.83500        23.66800        15.72100
C          11.47500        24.97800        16.18400
O          12.33700        24.87800        17.32800
C          11.65400        24.78600        18.58700
C          11.83000        23.36000        19.08200
O          11.26300        22.42600        18.15200
H          11.50500        22.76200        17.24200
C          11.32300        23.11100        20.49300
O          11.99000        21.91100        20.91000
H          11.89600        21.85600        21.90400
C          11.98000        27.16700        19.32200
O          12.41200        27.82300        18.12200
H          12.17500        28.79400        18.14700
C          12.13600        25.70200        19.70000
O          11.54300        25.54500        20.99700
C          11.83300        24.20400        21.41700
O          11.00500        24.06300        22.58000
C          11.69100        24.36300        23.80500
C          11.26600        25.72200        24.33500
O          11.56900        26.74500        23.37500
H          11.47000        26.20200        22.54100
C          11.93300        25.92900        25.68500
O          11.65400        27.15900        26.37000
H          12.02500        27.17700        27.29900
C          11.71100        21.87800        24.54300
O          11.19100        21.24500        23.36400
H          11.43700        20.27600        23.40000
C          11.25400        23.30400        24.80400
O          11.93600        23.52600        26.04700
C          11.62400        24.79200        26.64600
O          12.37500        24.85900        27.86600
C          11.54900        24.73200        29.03200
C          11.82700        23.30200        29.46300
O          11.83600        22.21700        28.52400
H          12.08400        22.64500        27.65500
C          11.09400        23.08100        30.77700
O          11.18800        21.73600        31.26800
H          10.73600        21.84400        32.15400
C          11.68700        27.08600        29.69100
O          12.43900        27.71800        28.64600
H          12.56600        28.64100        29.01100
C          11.99300        25.66800        30.14500
O          11.37400        25.38700        31.40900
C          11.61800        24.03900        31.83400
O          10.95400        23.84100        33.09100
C          11.53300        24.19600        34.35600
C          11.22300        25.63200        34.74800
O          11.53600        26.62600        33.76100
H          11.40000        26.17300        32.88000
C          11.94100        25.87400        36.06600
O          11.38300        27.02700        36.71300
H          11.74100        27.13800        37.64100
C          11.40400        21.69400        35.07200
O          10.52400        21.24600        34.03100
H          10.80600        20.29800        33.88300
C          11.20500        23.16100        35.41900
O          11.89800        23.48900        36.63200
C          11.58200        24.81100        37.09100
O          12.10500        25.04400        38.40700
C          11.41400        24.58900        39.57900
C          11.69200        23.14800        39.97300
O          10.94400        22.35000        39.04400
H          11.39100        22.48400        38.16000
C          11.15500        22.92800        -0.57700
O          11.34300        21.61800        -0.02300
H          10.98700        21.57100         0.91000
C          11.46700        27.02100        40.14300
O          12.51400        27.64400        39.38500
H          12.39100        28.62000        39.56100
C          11.86700        25.57600        -1.34600
O          11.16400        25.31800        -0.12200
C          11.54800        24.03300         0.38900
O          10.88000        23.89100         1.65100
C           7.12800        20.08300         0.43000
C           7.05400        18.73700         1.13200
O           6.53000        17.75700         0.22500
H           7.14800        17.83500        -0.55800
C           6.12500        18.86900         2.32900
O           5.91200        17.64100         3.04100
H           5.53000        16.94000         2.43900
C           7.17200        22.58400         0.90500
O           7.91000        23.69100         1.44100
H           7.83000        24.41000         0.75100
C           7.49300        21.18600         1.41000
O           6.76900        21.11400         2.64700
C           6.72000        19.85100         3.32500
O           5.91500        20.11400         4.48300
C           6.57500        20.23000         5.75100