# freq=raman b3lyp/6-31+g(2d,p) geom=connectivity

423 8000/8000.com

0 1
O           7.84300         7.74100        12.38300
C           8.28400         8.01900        13.72000
C           7.76300         9.31900        14.31100
O           7.90900        10.39100        13.36800
H           7.70300        10.01200        12.46600
C           8.43500         9.56500        15.65200
O           8.01500        10.85300        16.12600
H           8.45200        11.10900        16.98900
C           8.75600         5.64200        14.38800
O           8.48900         4.96000        13.15500
H           8.68400         3.98400        13.25100
C           7.98200         6.90900        14.71400
O           8.40500         7.21100        16.05200
C           7.94400         8.46400        16.57800
O           8.70700         8.67500        17.77500
C           8.15900         8.21200        19.01700
C           8.55900         6.79300        19.38600
O           8.03200         5.87900        18.41300
H           8.08700         6.35600        17.53600
C           7.98500         6.49200        20.76100
O           8.56300         5.22400        21.10500
H           8.35000         5.03700        22.06400
C           8.29200        10.63200        19.87800
O           8.55900        11.45800        18.73600
H           8.58000        12.44400        18.90200
C           8.65000         9.17000        20.09100
O           8.01600         8.83400        21.33300
C           8.47700         7.54000        21.74600
O           7.74300         7.30600        22.95700

