# freq=raman b3lyp/6-31+g(d,p) geom=connectivity

350 10000.com

0 1
 O                  7.90700000    7.72700000   22.90400000
 C                  8.41200000    8.10600000   24.19300000
 C                  8.08200000    9.51600000   24.65600000
 O                  8.57700000   10.41100000   23.65000000
 H                  8.44700000    9.88300000   22.81100000
 C                  8.60500000    9.82700000   26.04900000
 O                  7.96400000   10.94800000   26.67400000
 H                  8.45400000   10.99800000   27.54500000
 C                  8.32100000    5.63100000   24.96100000
 O                  7.89900000    4.97200000   23.75900000
 H                  8.01700000    3.98000000   23.80700000
 C                  8.04900000    7.09500000   25.26800000
 O                  8.94200000    7.41500000   26.34500000
 C                  8.37100000    8.60100000   26.91600000
 O                  9.21500000    8.75300000   28.06700000
 C                  8.59100000    8.35500000   29.29600000
 C                  9.11200000    7.00100000   29.75300000
 O                  8.74500000    6.00900000   28.78300000
 H                  8.99700000    6.38100000   27.88900000
 C                  8.61700000    6.69200000   31.15700000
 O                  9.31900000    5.61000000   31.78600000
 H                  8.81700000    5.36700000   32.61600000
 C                  8.45400000   10.80100000   30.06200000
 O                  9.42700000   11.48400000   29.25800000
 H                  9.27900000   12.47200000   29.28800000
 C                  8.81600000    9.36600000   30.40900000
 O                  8.12100000    8.93700000   31.58900000
 C                  8.75100000    7.79700000   32.19200000
 O                  8.01900000    7.64900000   33.41700000
 H                  8.63415887    7.56060033   34.14868645
 H                  9.78177202    8.00292595   32.39200887
 H                  7.58331135    6.42395865   31.08960860
 H                 10.18034495    7.05145431   29.78451881
 H                  7.53795307    8.27067002   29.12605699
 H                  9.86144370    9.35373047   30.63658938
 H                  8.32535347   11.34687216   30.97324840
 H                  7.52294809   10.79660059   29.53472115
 H                  8.64163997    7.55267556   22.31111290
 H                  7.90139748    5.07244930   25.77146582
 H                  9.38244220    5.50656220   25.01349470
 H                  7.03344771    7.22855855   25.57737947
 H                  9.47795471    8.07165015   24.10662494
 H                  7.01646887    9.61038466   24.68119835
 H                  9.65649618   10.01639865   25.99082833
 H                  7.34256613    8.47316524   27.18223683

 1 2 1.0 38 1.0
 2 3 1.0 12 1.0 42 1.0
 3 4 1.0 6 1.0 43 1.0
 4 5 1.0
 5
 6 7 1.0 14 1.0 44 1.0
 7 8 1.0
 8
 9 10 1.0 12 1.0 39 1.0 40 1.0
 10 11 1.0
 11
 12 13 1.0 41 1.0
 13 14 1.0
 14 15 1.0 45 1.0
 15 16 1.0
 16 17 1.0 26 1.0 34 1.0
 17 18 1.0 20 1.0 33 1.0
 18 19 1.0
 19
 20 21 1.0 28 1.0 32 1.0
 21 22 1.0
 22
 23 24 1.0 26 1.0 36 1.0 37 1.0
 24 25 1.0
 25
 26 27 1.0 35 1.0
 27 28 1.0
 28 29 1.0 31 1.0
 29 30 1.0
 30
 31
 32
 33
 34
 35
 36
 37
 38
 39
 40
 41
 42
 43
 44
 45

