# freq=raman b3lyp/6-31+g(d,p) geom=connectivity

550 6000.com

0 1
O           9.37700         7.10900        21.51800
C          10.16600         7.05400        22.71500
C          10.10700         8.40000        23.41900
O          10.91000         9.29700        22.63800
H          10.80400         9.06700        21.67100
C          10.90400         8.58100        24.70100
O          10.69000         9.80200        25.42300
H          10.71800        10.50300        24.71000
C           9.68400         4.65600        23.11700
O           9.18400         3.65200        24.01200
H           9.03800         2.75700        23.58900
C           9.81200         6.02100        23.77300
O          10.60300         6.17400        24.96000
C          10.55800         7.43700        25.64100
O          11.10100         7.24900        26.95600
C          10.30300         7.36600        28.14300
C           9.74200         5.97400        28.38200
O           8.85900         5.46000        27.37400
H           9.53900         5.38300        26.64500
C           9.07000         5.92900        29.74400
O           8.69900         4.59700        30.12900
H           7.81300         4.34800        29.73600
C          11.48000         9.30300        29.16300
O          12.16900         9.80900        30.31500
H          12.21800        10.80000        30.19300
C          11.30100         7.79400        29.20600
O          10.62600         7.69400        30.46900
C          10.16000         6.35900        30.71200
O           9.49800         6.57600        31.96600

