# freq=raman b3lyp/6-31+g(2d,p) geom=connectivity

473 10000.com

0 1
C           8.14500         7.98100         2.89200
C           7.68500         9.34600         3.37800
O           8.02600        10.33700         2.39800
H           8.12200         9.90500         1.50100
C           8.12300         9.71700         4.78500
O           7.36400        10.79000         5.36100
H           7.71200        11.03600         6.26500
C           8.56900         5.64900         3.50100
O           8.17700         4.76100         2.44500
H           8.38700         3.81800         2.70400
C           7.78900         6.89400         3.89300
O           8.41500         7.25400         5.13300
C           8.01100         8.50900         5.70100
O           8.86200         8.76500         6.82800
C           8.28600         8.37000         8.08200
C           8.76400         7.03300         8.62500
O           8.26000         6.06500         7.69300
H           8.61100         6.29700         6.78600
C           8.28400         6.77200        10.04400
O           8.96400         5.66200        10.64800
H           8.42400         5.42400        11.45500
C           7.77700        10.71000         8.84800
O           8.12900        11.62100         7.79600
H           8.19800        12.55500         8.14700
C           8.57000         9.44200         9.12100
O           7.88300         9.02100        10.30800
C           8.47400         7.92300        11.01800
O           7.56900         7.80400        12.12500
C           8.15600         8.06000        13.40900
C           7.62400         9.42200        13.82500
O           8.06500        10.43200        12.90700
H           7.67200        10.14100        12.03500
C           8.09100         9.77900        15.22700
O           7.50200        11.00500        15.68500
H           7.74200        11.16400        16.64200
C           8.02500         5.57400        14.15400
O           7.63200         4.87300        12.96500
H           7.84300         3.91600        13.16100
C           7.65500         7.02700        14.40500
O           8.06400         7.44400        15.71600
C           7.63000         8.71800        16.21300
O           8.45100         8.89600        17.37700
C           8.02800         8.37500        18.64600
C           8.68500         7.05900        19.03100
O           8.34100         6.03000        18.09200
H           8.54400         6.37300        17.17400
C           8.30600         6.66200        20.44800
O           8.99300         5.49500        20.92300
H           8.60200         5.23300        21.80500
C           7.80400        10.73700        19.49900
O           8.11700        11.50700        18.32900
H           8.03400        12.48700        18.50700
C           8.37500         9.35200        19.75700
O           7.87200         9.04500        21.06600
C           8.42700         7.78400        21.46700
O           7.59200         7.53300        22.60600
C           8.10700         7.83800        23.91000
C           7.55500         9.14800        24.44800
O           7.71500        10.19100        23.47500
H           7.54100         9.74200        22.59900
C           8.18400         9.57300        25.76500
O           7.68500        10.76500        26.38900
H           8.25000        11.04900        27.16300
C           8.35100         5.38700        24.55500
O           7.89100         4.68200        23.39300
H           8.05100         3.70300        23.51400
C           7.85500         6.76600        24.95800
O           8.50000         7.14000        26.18400
C           7.98200         8.38100        26.68600
O           8.68400         8.68000        27.90200
C           8.07100         8.29200        29.14000
C           8.44400         6.89100        29.59400
O           8.24000         5.83700        28.64200
H           8.52500         6.16900        27.74300
C           7.96900         6.51100        30.98700
O           8.49900         5.28500        31.50900
H           8.14500         5.29400        32.44500
C           7.86700        10.74000        29.90100
O           8.54100        11.41100        28.82600
H           8.45600        12.38800        29.02100
C           8.39100         9.34300        30.19000
O           7.87100         8.95000        31.46800
C           8.34800         7.66700        31.89900
O           7.62200         7.44800        33.11700
C           8.22200         7.78100        34.37700
C           7.72100         9.12900        34.86900
O           7.96400        10.25700        34.01600
H           7.84600         9.85900        33.10700
C           8.22100         9.53500        36.24600
O           7.45800        10.67000        36.68400
H           7.89200        10.99400        37.52500
C           8.10100         5.36800        35.08700
O           7.68000         4.66400        33.91000
H           7.83300         3.67900        33.98700
C           7.81200         6.81000        35.47300
O           8.38400         7.15700        36.74200
C           8.00100         8.43500        37.27100
O           8.88800         8.66700        38.37500
C           8.30200         8.32600        39.63900
C           8.79300         6.95600        40.07500
O           8.67600         5.90600        39.10300
H           9.19600         6.33300        38.36400
C           8.33800         6.61500        41.48500
O           9.13500         5.52400        41.97100
H           8.62100         4.86400        42.51800
C           8.03600        10.65900        40.41600
O           8.60400        11.38100        39.31400
H           8.53900        12.36800        39.46200
C           8.62600         9.30300        -1.30400
O           7.91500         8.89400        -0.12600
C           8.51600         7.72400         0.44700
O           7.67700         7.56400         1.60100
C           4.07500         4.45100         0.50700
C           4.30000         3.00400        42.98900
O           3.77700         2.06000        42.04400
H           3.99800         2.33700        41.10900
C           3.78700         2.74000         2.32800
O           4.19900         1.45100         2.80500
H           3.83700         1.21600         3.70800
C           3.91500         6.85100         1.42100
O           4.10800         7.62000         0.22500
H           3.96400         8.59600         0.38900
C           4.48800         5.45200         1.57500
O           3.91400         5.09400         2.84000
C           4.25200         3.78700         3.32700
O           3.37700         3.71800         4.46300
C           4.02500         3.99400         5.71300
C           3.64600         5.36600         6.24700
O           3.93000         6.37500         5.26700
H           3.59800         6.13200         4.35500
C           4.27200         5.63700         7.60500
O           3.78800         6.90900         8.06000
H           3.99400         7.05100         9.02800
C           3.88300         1.51700         6.24600
O           3.36700         0.75900         5.14200
H           3.65600        -0.19800         5.17300
C           3.58600         2.93400         6.71000
O           4.14700         3.17100         8.00900
C           3.87300         4.48600         8.51400
O           4.74000         4.55900         9.65600
C           4.01400         4.36200        10.87800
C           4.24800         2.94400        11.37300
O           3.90600         1.97000        10.37600
H           4.05700         2.42600         9.49800
C           3.58600         2.59700        12.69600
O           3.89200         1.24500        13.06700
H           3.75700         1.17400        14.05600
C           3.90100         6.84300        11.85000
O           4.36200         7.50100        10.66100
H           4.21000         8.47900        10.80600
C           4.36600         5.39900        11.93300
O           3.79600         4.93900        13.16700
C           4.07900         3.63400        13.69200
O           3.37900         3.49800        14.93700
C           4.05900         3.89200        16.13700
C           3.70100         5.31000        16.55200
O           4.00800         6.25400        15.51600
H           3.45000         5.84800        14.79300
C           4.36200         5.67300        17.87200
O           3.88800         6.90800        18.42800
H           4.26800         6.99800        19.34800
C           4.14200         1.51200        16.99600
O           3.59900         0.79800        15.87600
H           3.86500        -0.16600        15.90100
C           3.72700         2.94700        17.28000
O           4.42900         3.33600        18.46900
C           4.02700         4.63400        18.93000
O           4.76200         4.84500        20.14500
C           4.15300         4.47700        21.39100
C           4.21800         3.03800        21.87700
O           3.72500         2.12000        20.89000
H           4.03100         2.42100        19.98700
C           3.52200         2.79800        23.20700
O           3.36400         1.41900        23.57100
H           3.49400         1.31400        24.55700
C           4.36000         6.83800        22.28800
O           4.40600         7.53900        21.03700
H           4.15800         8.50800        21.01200
C           4.59300         5.35900        22.54800
O           4.08100         5.05200        23.85300
C           4.16600         3.68000        24.26400
O           3.49800         3.51900        25.52400
C           4.33900         3.81600        26.64800
C           3.88400         5.17500        27.15400
O           4.15100         6.23300        26.22100
H           3.98100         5.99200        25.26500
C           4.41700         5.45800        28.54900
O           4.01900         6.79300        28.89400
H           4.09400         6.87000        29.88800
C           4.53600         1.40100        27.41600
O           4.05100         0.81900        26.19700
H           4.14900        -0.17600        26.18900
C           3.98800         2.78800        27.71100
O           4.56200         3.10600        28.98700
C           4.02000         4.33400        29.49300
O           4.69300         4.53700        30.74400
C           3.89900         4.21300        31.89500
C           4.26500         2.89900        32.56600
O           3.95600         1.91500        31.56900
H           4.44000         2.23900        30.75600
C           3.62600         2.64500        33.92200
O           3.91300         1.36400        34.50100
H           3.54400         1.33500        35.43000
C           3.78100         6.69000        32.62000
O           4.25900         7.31600        31.42000
H           3.99200         8.27900        31.46300
C           4.18700         5.26400        32.95500
O           3.64500         4.98000        34.25300
C           4.16700         3.76100        34.80100
O           3.54600         3.70800        36.09400
C           4.19300         3.92000        37.35700
C           3.88000         5.32500        37.84600
O           3.93400         6.24500        36.74600
H           3.72900         5.77200        35.88800
C           4.62300         5.68300        39.12200
O           4.33700         7.03300        39.51600
H           4.30200         7.09900        40.51300
C           4.21100         1.47600        38.13900
O           3.48200         0.81800        37.09300
H           3.77000        -0.14000        37.10100
C           3.75200         2.90200        38.39600
O           4.41900         3.32700        39.59300
C           4.12000         4.63500        40.10200
O           4.79200         4.73400        41.36600
C           7.95100        16.06500         3.09000
C           7.53000        17.45200         3.54900
O           7.87300        18.53500         2.67200
H           7.48600        18.26400         1.79100
C           8.02600        17.90200         4.91300
O           7.34500        19.08600         5.35400
H           7.85300        19.54200         6.08400
C           8.13200        13.76800         3.90500
O           7.80000        13.01100         2.73200
H           8.08100        12.06000         2.85500
C           7.50700        15.12300         4.19700
O           8.10900        15.49200         5.44600
C           7.77300        16.80100         5.93000
O           8.67600        16.99900         7.02700
C           8.21900        16.63800         8.33800
C           8.94100        15.37600         8.78000
O           8.56400        14.35700         7.84300
H           8.49300        14.79400         6.94600
C           8.53700        14.96500        10.18700
O           9.09900        13.80000        10.80700
H           8.67500        13.78300        11.71300
C           7.93000        19.13700         9.02300
O           8.51600        19.81600         7.90200
H           8.69000        20.77300         8.13000
C           8.45900        17.75000         9.34700
O           8.01000        17.31400        10.63800
C           8.60100        16.12100        11.17200
O           7.78100        15.85200        12.31800
C           8.21700        16.23900        13.62900
C           7.64500        17.56600        14.10200
O           7.79300        18.50200        13.02400
H           7.80600        18.05300        12.13100
C           8.01500        17.99000        15.51300
O           7.37300        19.18100        15.98900
H           7.91400        19.54100        16.75000
C           8.30900        13.75500        14.36600
O           8.09100        13.15900        13.07900
H           8.22600        12.17000        13.13700
C           7.71200        15.14100        14.55100
O           8.05200        15.54700        15.88400
C           7.62500        16.81700        16.39800
O           8.41200        17.05400        17.57400
C           7.89900        16.57500        18.82500
C           8.47600        15.21500        19.18300
O           8.13700        14.14500        18.28900
H           8.28800        14.52400        17.37600
C           8.20100        14.77600        20.61200
O           8.88900        13.59600        21.05300
H           8.40100        13.19300        21.82700
C           7.82500        18.96800        19.62400
O           8.34600        19.78000        18.56200
H           8.23400        20.74100        18.81800
C           8.34600        17.56500        19.88900
O           7.94000        17.12400        21.19300
C           8.47600        15.86800        21.63300
O           7.64900        15.59900        22.77300
C           8.06000        15.93400        24.10600
C           7.32500        17.15500        24.63600
O           7.29100        18.17500        23.62800
H           7.16900        17.64200        22.79000
C           7.83700        17.54100        26.01400
O           7.27700        18.79800        26.42200
H           7.65900        18.97000        27.33000
C           8.15700        13.50600        24.82700
O           7.65700        12.84100        23.65800
H           7.88100        11.86700        23.68700
C           7.63900        14.90100        25.13800
O           8.05000        15.23700        26.47100
C           7.41100        16.42700        26.95600
O           8.12000        16.68500        28.17700
C           7.49000        16.34800        29.42200
C           8.13200        15.06100        29.91100
O           8.01100        13.99600        28.95700
H           8.23200        14.42400        28.08000
C           7.60800        14.58400        31.25600
O           8.45900        13.52900        31.72700
H           8.02200        13.22000        32.57200
C           7.44700        18.84200        30.25000
O           7.93900        19.38300        29.01500
H           7.67400        20.34700        29.00100
C           7.77200        17.37900        30.50300
O           7.13600        16.95100        31.71600
C           7.81900        15.77600        32.17600
O           7.09700        15.45500        33.37400
C           7.79100        15.82400        34.57500
C           7.34300        17.18500        35.08000
O           7.64500        18.21100        34.12300
H           7.27400        17.91600        33.24200
C           7.89800        17.61800        36.42700
O           7.31100        18.83300        36.91600
H           7.80000        19.09400        37.74900
C           8.02100        13.53000        35.36900
O           7.32700        12.86700        34.30300
H           7.48500        11.88100        34.35700
C           7.48600        14.90200        35.74500
O           8.02200        15.33900        37.00200
C           7.55200        16.60000        37.50100
O           8.40500        16.93100        38.60600
C           7.96700        16.46900        39.89200
C           8.64600        15.21400        40.41300
O           8.37800        14.09100        39.56000
H           8.45900        14.46800        38.63700
C           8.16600        14.78800        -0.27700
O           8.91600        13.72300         0.32600
H           8.40900        13.40500         1.12800
C           7.68700        18.95000        40.58000
O           8.04300        19.65600        39.38200
H           7.98200        20.62800        39.60900
C           8.17200        17.55600        -1.12700
O           7.58500        17.13900         0.11400
C           8.19500        15.96900         0.68000
O           7.31200        15.94000         1.81100
C           3.58500        12.46300         0.29200
C           3.92800        11.06900        42.86200
O           3.53600        10.07000        41.91000
H           3.92300        10.31300        41.02000
C           3.47700        10.78300         2.21800
O           4.38100         9.81600         2.77300
H           4.10000         9.56200         3.69900
C           3.59400        14.95700         1.11400
O           4.02500        15.59900        -0.09500
H           3.86500        16.57400         0.06300
C           3.91700        13.49300         1.36000
O           3.20000        13.19200         2.56600
C           3.74300        11.98200         3.11400
O           3.01600        11.84100         4.34300
C           3.77600        12.13300         5.52500
C           3.45000        13.51700         6.06300
O           3.52800        14.48100         5.00300
H           2.87900        14.24200         4.28000
C           4.25700        13.87900         7.29900
O           3.71500        15.07400         7.88000
H           4.11500        15.22300         8.78400
C           3.34100         9.69600         6.33600
O           4.42400         9.07200         5.63000
H           4.25000         8.11100         5.84400
C           3.44200        11.17800         6.65900
O           4.27100        11.41500         7.80600
C           4.01000        12.74400         8.28000
O           4.86300        12.81100         9.43200
C           4.06900        12.60600        10.61000
C           4.26900        11.23200        11.23000
O           4.19200        10.20500        10.23100
H           4.40100        10.59100         9.33300
C           3.47700        10.89800        12.48400
O           3.81500         9.61100        13.02100
H           3.53900         9.52100        13.97800
C           4.02600        15.01900        11.29800
O           4.72100        15.80100        10.31600
H           4.51800        16.77000        10.45500
C           4.30500        13.59300        11.74200
O           3.42800        13.27800        12.83300
C           3.75000        12.02900        13.46200
O           3.11000        11.89200        14.73900
C           3.90300        12.12200        15.91300
C           3.63400        13.54900        16.36400
O           4.08200        14.58400        15.47600
H           3.75600        14.29500        14.57600
C           4.15600        13.84200        17.76100
O           3.65200        15.06600        18.31400
H           3.83200        15.32200        19.26400
C           3.77800         9.75200        16.90200
O           3.52200         9.04900        15.67700
H           3.69200         8.08100        15.85700
C           3.43000        11.22400        17.04500
O           4.03000        11.50800        18.31700
C           3.70000        12.82100        18.79100
O           4.46200        12.84700        20.00600
C           3.84900        12.47900        21.25000
C           4.19000        11.06100        21.67600
O           3.69400        10.14100        20.69300
H           3.92300        10.56000        19.81400
C           3.53600        10.71900        23.00500
O           3.80200         9.41900        23.55100
H           3.58300         9.39300        24.52600
C           3.88800        14.94100        22.10100
O           4.31000        15.63300        20.91700
H           3.98100        16.56100        21.09200
C           4.25000        13.48100        22.32100
O           3.60000        13.13600        23.55300
C           3.93000        11.80900        23.98800
O           3.27000        11.66300        25.25400
C           3.88300        12.12000        26.46800
C           3.65400        13.53600        26.97200
O           4.05800        14.49800        25.98800
H           3.96400        14.14200        25.05800
C           4.23700        13.83900        28.34200
O           3.78000        15.14100        28.73600
H           3.87500        15.23100        29.72800
C           4.06000         9.69900        27.45300
O           3.97600         8.99200        26.20700
H           3.94900         8.02000        26.44200
C           3.51400        11.11400        27.54700
O           4.06800        11.50400        28.81200
C           3.65800        12.79600        29.28400
O           4.20400        12.73600        30.61000
C           3.60700        12.50500        31.89500
C           3.86400        11.06000        32.28800
O           3.40900        10.09900        31.32500
H           3.72500        10.46100        30.44800
C           3.45300        10.66400        33.69700
O           3.94500         9.42700        34.23300
H           3.57100         9.15900        35.12100
C           3.43300        14.89200        32.57500
O           3.77400        15.64600        31.40200
H           3.39100        16.57000        31.40100
C           3.99800        13.53100        32.94600
O           3.57800        13.12800        34.25800
C           3.87600        11.77800        34.64100
O           3.08700        11.68900        35.83600
C           3.71800        11.98100        37.09100
C           3.41800        13.37500        37.61800
O           3.73700        14.30100        36.57000
H           3.51500        13.88300        35.68900
C           3.94500        13.68500        39.01000
O           3.51400        14.94800        39.53700
H           3.79500        14.99500        40.49600
C           3.75000         9.62000        37.85700
O           3.14500         8.85000        36.80700
H           3.52300         7.93000        36.91000
C           3.30600        11.03200        38.20400
O           3.93400        11.32600        39.46000
C           3.58100        12.60200        40.01300
O           4.38500        12.71800        41.19600
C           7.98600        24.19800         3.12700
C           7.33200        25.50500         3.54600
O           7.54000        26.55500         2.59000
H           7.27300        26.19100         1.69700
C           7.88600        25.92800         4.89600
O           7.30700        27.14600         5.38500
H           7.96600        27.47200         6.06300
C           8.50900        21.81400         3.87900
O           7.95600        21.11100         2.75700
H           8.09300        20.13500         2.92500
C           7.89400        23.15800         4.23100
O           8.48900        23.64200         5.44400
C           7.81500        24.81300         5.92700
O           8.56200        25.15800         7.10300
C           7.97900        24.89800         8.38800
C           8.65100        23.60700         8.82800
O           8.89600        22.56700         7.86900
H           9.02300        23.01700         6.98500
C           8.08300        23.15400        10.16300
O           8.68400        21.94700        10.65400
H           8.15400        21.60000        11.42800
C           7.63400        27.29900         9.24000
O           7.84700        27.94600         7.97700
H           8.02500        28.91700         8.14100
C           8.23500        25.92300         9.48100
O           7.63000        25.53600        10.72200
C           8.08400        24.26200        11.20400
O           7.27900        23.78400        12.29100
C           7.65100        24.28500        13.58300
C           7.11100        25.57000        14.19000
O           7.22900        26.60800        13.20700
H           6.97600        26.14700        12.35600
C           7.78500        25.97600        15.49100
O           7.06900        27.07700        16.06900
H           7.41300        27.26600        16.98900
C           8.20400        21.86500        14.21000
O           7.69400        21.08800        13.11600
H           7.76900        20.10700        13.29900
C           7.56800        23.18100        14.62500
O           8.22500        23.53800        15.85000
C           7.71400        24.76000        16.40000
O           8.33300        25.07900        17.65500
C           7.64700        24.63900        18.83600
C           8.35900        23.39300        19.33800
O           8.02800        22.33500        18.42700
H           8.22700        22.54500        17.47000
C           7.83800        23.01700        20.71500
O           8.56200        21.86900        21.18400
H           7.95500        21.46500        21.86800
C           7.40800        27.12900        19.71000
O           7.96000        27.78300        18.55800
H           7.93000        28.78200        18.53600
C           7.83200        25.68500        19.92300
O           7.26200        25.36000        21.19900
C           7.99600        24.21000        21.64400
O           7.34600        23.99600        22.90500
C           7.99100        24.26200        24.15900
C           7.27100        25.48800        24.69700
O           7.45800        26.58200        23.78800
H           7.28100        26.17300        22.89300
C           7.66200        25.83600        26.12400
O           6.87200        26.95100        26.56300
H           7.15300        27.06200        27.51600
C           8.03400        21.78200        24.78900
O           7.56700        21.07900        23.62800
H           7.43500        20.10700        23.82200
C           7.61400        23.19200        25.17000
O           8.27000        23.51300        26.40500
C           7.57200        24.60800        27.01500
O           8.14600        24.91700        28.29400
C           7.61400        24.49100        29.55700
C           8.26100        23.19400        30.01600
O           8.04100        22.16500        29.04000
H           8.44200        22.39300        28.15300
C           7.72500        22.87300        31.40100
O           8.35400        21.70400        31.94700
H           7.97100        21.44600        32.83300
C           7.21200        26.97600        30.34000
O           7.61200        27.73200        29.18800
H           7.22200        28.65000        29.24900
C           7.83700        25.60800        30.56300
O           7.21300        25.20100        31.79000
C           7.88200        24.05700        32.34100
O           7.07800        23.78100        33.49700
C           7.71200        24.13700        34.73400
C           7.20500        25.51900        35.11000
O           7.40200        26.59500        34.18000
H           6.95100        26.30400        33.33600
C           7.65900        25.90100        36.50900
O           7.03400        27.07500        37.04800
H           7.38600        27.18500        37.97700
C           7.91100        21.66300        35.43600
O           7.56700        20.98900        34.21700
H           7.69800        20.00800        34.36000
C           7.39800        23.05800        35.75800
O           7.91000        23.50900        37.02000
C           7.42000        24.77100        37.49700
O           8.24300        25.01000        38.64800
C           7.76500        24.61000        39.94100
C           8.30900        23.28500        40.45000
O           8.17400        22.29000        39.42400
H           8.32800        22.68800        38.52000
C           7.84000        22.86300        -0.23500
O           8.63700        21.75500         0.20700
H           8.25800        21.57700         1.11500
C           7.54800        27.04400        40.76600
O           7.74800        27.76000        39.53900
H           7.82300        28.75100        39.65100
C           8.06000        25.63900        -1.04100
O           7.48800        25.29400         0.22900
C           7.99600        24.04200         0.71200
O           7.34700        23.69500         1.94400
C           3.59500        20.60100         0.24100
C           3.79600        19.17500        42.79900
O           3.03600        18.32900        41.92400
H           3.35100        18.72100        41.06000
C           3.33500        18.92300         2.15800
O           3.76900        17.64600         2.64700
H           3.80200        17.57100         3.64400
C           3.63900        23.02900         1.10500
O           4.13000        23.68200        -0.07400
H           3.80800        24.62000         0.06000
C           4.07600        21.58500         1.29500
O           3.63900        21.31900         2.63500
C           3.87900        19.98400         3.10200
O           3.22700        20.01200         4.38000
C           4.00100        20.23700         5.56700