# freq=raman b3lyp/6-31+g(2d,p) geom=connectivity

550 5555/5555.com

0 1
C           9.34400         8.17000         2.14500
C           9.65100         9.54200         2.72100
O          10.52400        10.22500         1.80900
H          10.33100        10.06300         0.84200
C          10.30700         9.52900         4.09200
O          10.13200        10.83200         4.66900
H          10.57200        11.53000         4.10400
C           8.86400         5.80400         2.92500
O           8.13600         5.10800         1.90300
H           8.17900         5.43600         0.95900
C           8.83800         7.28400         3.27200
O           9.74200         7.20800         4.38300
C           9.65100         8.50100         4.99900
O          10.44900         8.32600         6.17900
C           9.66500         8.29300         7.38100
C           9.55500         6.81900         7.73600
O           8.61800         6.19300         6.84700
H           9.01300         6.34100         5.94000
C           9.16300         6.56400         9.18200
O           9.71900         5.29100         9.54200
H           8.96600         4.68400         9.29000
C          10.83100        10.46000         8.27300
O          11.69500        11.05900         9.24800
H          12.63600        10.74500         9.37200
C          10.39900         9.02000         8.49700
O           9.77300         8.84100         9.77600
C           9.90200         7.46400        10.15900
O           9.34100         7.34400        11.47400
C          10.11700         7.39100        12.68100
C          10.26300         8.81300        13.19700
O          11.19700         9.45000        12.31300
H          10.84200         9.18100        11.41800
C          10.97100         8.78000        14.54200
O          10.99300        10.04500        15.21800
H          11.36400        10.77700        14.64600
C           9.23500         5.06400        12.90700
O           8.47200         3.93200        13.34800
H           8.83700         3.02700        13.13000
C           9.43400         6.39800        13.60800
O          10.08400         6.39500        14.88700
C          10.21700         7.74400        15.35900
O          11.07200         7.41500        16.46400
C          10.48000         7.54300        17.76500
C          10.19500         6.12200        18.22300
O           9.36400         5.38500        17.31500
H           9.60200         5.73200        16.40800
C           9.74000         6.02800        19.67000
O           9.54500         4.71800        20.22200
H           9.65200         3.92800        19.61900
C          11.90400         9.54900        18.32700
O          11.34600        10.86600        18.21200
H          10.78400        10.88600        17.38500
C          11.33500         8.22800        18.81900
O          10.69900         8.22000        20.10600
C          10.51500         6.90200        20.64200
O           9.89500         6.95800        21.93500
C          10.71200         7.02400        23.11300
C          10.83100         8.49600        23.47000
O          11.73400         9.20200        22.60700
H          11.47500         9.18600        21.64200
C          11.33600         8.85200        24.85900
O          11.42400        10.21300        25.30800
H          11.65800        10.20600        26.28000
C           9.99300         4.83500        23.93500
O           9.73500         4.01500        25.08400
H           9.53200         4.55800        25.89900
C           9.97500         6.32300        24.24200
O          10.62000         6.57300        25.50000
C          10.50000         7.97600        25.77800
O          11.08900         7.94800        27.08600
C          10.51300         7.69700        28.37600
C          10.41200         6.21200        28.68400
O           9.39200         5.55000        27.92300
H           9.42300         5.89500        26.98500
C           9.88200         5.98000        30.09000
O           9.94600         4.60300        30.48700
H           9.66400         3.96700        29.76900
C          10.93900         9.93500        29.12000
O          11.65600        10.62300        28.08500
H          11.62000        11.61100        28.23400
C          11.09400         8.48200        29.54000
O          10.30300         8.20400        30.70500
C          10.62500         6.85800        31.08400
O          10.02500         6.61500        32.36500
C          10.55000         6.99400        33.64600
C          10.24300         8.39600        34.14600
O          10.43400         9.42700        33.16600
H          10.58600         8.85400        32.36200
C          10.92900         8.54200        35.49400
O          10.61800         9.71400        36.26200
H          10.68400        10.55200        35.72100
C          10.55100         4.55800        34.19100
O           9.97300         3.54300        35.02400
H          10.01100         2.67200        34.53400
C          10.22400         5.95100        34.70300
O          11.01800         6.24000        35.86200
C          10.48200         7.43900        36.43900
O          11.29000         7.23000        37.60700
C          10.50400         7.02600        38.79000
C          10.31300         5.63000        39.35900
O           9.82200         4.64800        38.43500
H          10.29600         4.95000        37.60800
C           9.32100         5.64500        40.51100
O           9.12900         4.33600        41.06700
H           8.89400         3.67500        40.35400
C          11.25100         9.38800        39.49700
O          11.88900        10.24700        40.45400
H          12.86400        10.11100        40.28000
C          11.14400         7.91200        39.84600
O          10.47400         7.71100        41.09900
C          10.06800         6.42300        41.58300
O           9.12900         6.66400        42.64200
C           4.89100         3.14600        41.47900
C           4.85300         1.66900        41.83500
O           4.15900         0.79200        40.93700
H           4.42900         1.07400        40.01600
C           3.79700         2.87100         1.40700
O           3.95100         1.48200         1.73500
H           3.73900         0.99500         0.88800
C           5.46100         6.67400         0.39600
O           5.91400         7.47000         1.50100
H           5.72800         8.45100         1.45500
C           4.98800         5.33200         0.93100
O           4.07600         5.19600         2.03100
C           4.19700         3.84600         2.50200
O           3.35000         3.79800         3.66000
C           4.18500         3.86600         4.82500
C           4.20400         5.24700         5.45800
O           4.66500         6.37700         4.70300
H           4.07300         6.39000         3.89700
C           4.83200         5.22200         6.84200
O           4.44900         6.44300         7.49100
H           5.10900         7.19000         7.40400
C           3.56500         1.47900         5.24900
O           3.82500         0.36500         6.11600
H           3.97900        -0.51400         5.66600
C           3.67300         2.87000         5.85300
O           4.36000         2.81900         7.11100
C           4.30000         4.11100         7.73300
O           5.03300         4.29000         8.95300
C           4.29700         4.02100        10.15600
C           4.35000         2.52700        10.43100
O           4.29600         1.46300         9.47000
H           3.97300         1.80500         8.58800
C           3.52100         2.26900        11.67900
O           3.52000         0.84400        11.84700
H           3.26600         0.38600        10.99500
C           4.78600         6.33300        11.04000
O           5.20500         7.19900        12.10500
H           5.41300         8.14500        11.85500
C           4.80100         4.84200        11.33200
O           4.06500         4.46100        12.50300
C           4.22200         3.06000        12.77200
O           3.84300         3.22700        14.14600
C           4.65600         3.51200        15.29400
C           4.59100         4.91700        15.86900
O           4.98900         5.86900        14.87200
H           4.30000         6.02800        14.16400
C           5.33600         5.04400        17.18800
O           4.96800         6.35000        17.65500
H           5.16800         7.05800        16.97900
C           4.00900         1.13600        15.94300
O           3.59500         0.04500        16.77900
H           3.61600        -0.86300        16.36000
C           4.17500         2.57800        16.39300
O           5.09200         2.60700        17.49600
C           4.93800         3.89800        18.10400
O           5.90700         3.80300        19.15800
C           5.35900         3.47000        20.44200
C           5.20500         1.99900        20.79100
O           4.62600         1.14900        19.79000
H           4.94000         1.47600        18.89900
C           4.43500         1.87700        22.09600
O           4.15100         0.50900        22.42500
H           3.67700         0.09900        21.64600
C           6.11200         5.62400        21.38800
O           5.14300         6.38700        20.65500
H           5.37400         6.28400        19.68700
C           5.88800         4.15200        21.69400
O           5.13100         3.96500        22.89900
C           5.23000         2.56500        23.19400
O           4.49200         2.69700        24.41800
C           5.23400         2.78000        25.64300
C           5.53500         4.17800        26.15900
O           6.24400         4.89800        25.14100
H           5.62200         4.82600        24.36100
C           6.29200         4.12000        27.47500
O           6.65200         5.39700        28.02300
H           7.60300         5.55900        28.28700
C          10.09400        33.27800        26.19600
O          11.33000        32.57900        25.99000
H          11.17200        31.80600        25.37600
C           4.47800         1.97700        26.69000
O           5.08100         2.07300        27.98900
C           5.39600         3.39100        28.46200
O           6.07000         3.31700        29.72700
C           5.31300         3.31000        30.94600
C           5.45600         1.88200        31.44700
O           4.95000         0.96200        30.46900
H           5.00900         1.50800        29.63400
C           4.70900         1.69800        32.75800
O           5.13000         0.48200        33.39300
H           4.49000        -0.22500        33.09200
C           6.11100         5.57300        31.52700
O           5.01500         6.49900        31.48200
H           5.29700         7.43600        31.69100
C           5.94900         4.15200        32.04000
O           5.14200         4.14000        33.22700
C           5.03400         2.80600        33.74600
O           4.13200         3.00300        34.84500
C           4.87100         3.04800        36.07400
C           4.69400         4.44600        36.64400
O           5.26200         5.47000        35.81400
H           5.06400         5.26400        34.85600
C           5.21600         4.66100        38.05600
O           5.18500         6.00500        38.55900
H           5.87600         6.53400        38.06600
C          10.41000        33.37900        37.02400
O           9.87400        32.31100        37.81900
H          10.11800        31.38700        37.52500
C           4.24000         2.16400        37.13700
O           4.60900         2.23800        38.52200
C           4.65300         3.59600        38.98300
O           5.40800         3.55200        40.20300
C          12.37500        16.22400         2.37200
C          12.93200        17.56300         2.82800
O          13.85300        18.00700         1.82100
H          13.30500        18.23400         1.01600
C          13.57500        17.63800         4.20400
O          13.92600        18.99400         4.51600
H          14.88800        19.11100         4.26900
C          10.76000        14.49000         2.99600
O          11.32100        13.21300         3.33200
H          12.00900        12.88500         2.68400
C          11.41800        15.77800         3.46500
O          11.95500        15.86200         4.79300
C          12.62600        17.05100         5.23600
O          13.38200        16.60600         6.37100
C          12.85000        16.26800         7.66100
C          12.95200        14.81400         8.09000
O          12.70600        13.99100         6.94000
H          11.91200        14.21400         6.37400
C          12.09200        14.71600         9.34000
O          12.12300        13.39800         9.90600
H          11.88200        12.57100         9.39700
C          13.40600        18.67400         8.36700
O          13.89900        19.56100         9.38100
H          14.22500        20.44000         9.03400
C          13.32900        17.20600         8.75600
O          12.61900        16.96000         9.97800
C          12.71000        15.59600        10.41500
O          12.01000        15.73900        11.65900
C          12.84700        15.54700        12.80900
C          12.96900        17.00300        13.22700
O          13.67800        17.94000        12.40200
H          13.38300        17.60600        11.50700
C          13.84500        17.00100        14.46900
O          14.14400        18.32100        14.94600
H          14.72400        18.69300        14.22200
C          11.86200        13.21700        13.34300
O          11.20000        12.63100        14.47400
H          10.23800        12.90400        14.47300
C          12.12200        14.64500        13.79500
O          12.81100        14.83800        15.03900
C          13.00100        16.20000        15.44800
O          13.57200        15.97700        16.74500
C          12.94600        15.83000        18.02800
C          12.58400        14.39700        18.38400
O          11.73800        13.80000        17.39000
H          12.10800        14.21700        16.56000
C          12.01800        14.25600        19.78800
O          11.66800        12.98700        20.36100
H          11.23200        12.28400        19.79900
C          13.75800        17.90800        18.84000
O          14.22900        18.71500        19.92900
H          14.16400        19.62400        19.51700
C          13.90400        16.41000        19.05500
O          13.08100        16.31100        20.22600
C          12.95200        14.97900        20.74500
O          12.38700        15.43100        21.98400
C          12.98000        15.21000        23.27200
C          13.53400        16.56000        23.69700
O          14.41800        17.20000        22.76500
H          14.05300        17.14600        21.83600
C          14.12800        16.46100        25.09300
O          14.70200        17.77600        25.06700
H          15.03500        17.67500        24.13000
C          11.39900        13.47100        23.97800
O          12.21000        12.48100        24.62900
H          11.74000        11.60600        24.50700
C          11.89800        14.87300        24.28500
O          12.32000        15.02500        25.64800
C          12.94900        16.25600        26.03100
O          13.56700        16.22700        27.32600
C          12.89700        15.97100        28.56900
C          12.69700        14.49300        28.86100
O          11.97600        13.74400        27.87200
H          12.07800        14.10600        26.94600
C          11.92400        14.23700        30.14400
O          11.31800        12.97900        30.47700
H          10.55300        13.28200        31.04700
C          13.84000        18.09700        29.75900
O          14.26200        18.83700        30.91400
H          14.72800        19.67900        30.64400
C          13.64300        16.59000        29.74000
O          12.93300        16.25800        30.94300
C          12.72600        14.87500        31.26600
O          11.94500        14.99100        32.46400
C          12.46200        15.04100        33.80200
C          12.94700        16.40100        34.27700
O          14.05000        16.85900        33.48200
H          13.67800        16.82400        32.55500
C          13.64800        15.92400        35.53900
O          14.66000        16.80000        36.05600
H          15.58400        16.51500        35.79900
C          11.37400        13.03700        34.19100
O          10.68300        12.00100        34.90400
H           9.69700        12.15600        34.84300
C          11.44300        14.44500        34.75900
O          11.82700        14.44400        36.14200
C          12.59900        15.57100        36.58000
O          13.06900        15.18300        37.87900
C          12.25200        15.42300        39.03300
C          12.19300        13.94900        39.40100
O          11.04800        13.40900        38.72600
H          11.18700        13.40100        37.73500
C          11.91200        13.71500        40.87600
O          12.43300        12.51300        41.46300
H          11.95800        11.80400        40.94100
C          13.05300        17.76500        39.57200
O          13.88900        18.68400        40.29000
H          13.73900        19.63400        40.01500
C          13.11800        16.29000        39.93200
O          12.78000        16.05400        41.30600
C          12.68900        14.69100        41.74500
O          12.03800        15.05000        42.97200
C           7.15500        11.17300        40.75600
C           6.50800         9.88300        41.23200
O           5.40100         9.71700        40.33400
H           5.93800         9.41400        39.54700
C           5.51800        11.33500         0.85900
O           5.13900        10.00200         1.23100
H           4.25000         9.74900         0.84900
C           7.69500        14.66900        -0.35800
O           8.18400        15.63400         0.58400
H           8.24600        16.52600         0.13500
C           7.56900        13.22500         0.10100
O           6.84300        13.18900         1.33800
C           6.50800        11.89700         1.86500
O           5.91700        12.35200         3.09100
C           6.64600        11.99500         4.27500
C           7.25700        13.28900         4.78600
O           8.08200        13.98100         3.83700
H           7.84200        13.86300         2.87300
C           8.07700        13.03600         6.04000
O           8.89500        14.05900         6.62500
H           9.47200        14.34400         5.85900
C           5.06300        10.16200         5.07400
O           5.80300         8.94700         5.25900
H           5.25800         8.24200         4.80500
C           5.84600        11.41500         5.43000
O           6.59400        11.20300         6.63600
C           7.10900        12.47100         7.06600
O           7.68800        12.08600         8.32200
C           6.99200        12.45900         9.52000
C           6.50200        11.08600         9.95000
O           5.73000        10.38900         8.96100
H           6.00500        10.65100         8.03600
C           5.70300        11.04400        11.24200
O           5.27300         9.68700        11.42200
H           5.26800         9.32300        10.49100
C           7.91200        14.45000        10.42900
O           7.08700        15.58900        10.71700
H           7.55500        16.36700        10.29800
C           7.81600        12.95700        10.69600
O           7.21200        12.70600        11.97300
C           6.77600        11.37100        12.26800
O           6.22500        11.42900        13.59200
C           7.14200        11.12000        14.65300
C           7.56700        12.47600        15.19300
O           8.57900        12.96600        14.30200
H           7.92800        13.20000        13.58000
C           8.34300        12.40400        16.49800
O           8.83500        13.61600        17.08700
H           9.74300        13.52000        17.49500
C           5.58500         9.12900        15.00900
O           6.50200         8.02600        14.97300
H           5.91500         7.24800        14.75000
C           6.25000        10.35400        15.61600
O           6.92000        10.42000        16.88300
C           7.35100        11.68700        17.40000
O           7.92200        11.20800        18.62600
C           7.09200        11.21300        19.79600
C           6.61900         9.84800        20.27000
O           5.74400         9.43300        19.21100
H           6.22500         9.71000        18.37900
C           5.92400         9.88200        21.62100
O           5.70800         8.54800        22.10100
H           5.27100         7.92600        21.45200
C           8.14200        13.27100        20.61300
O           8.98700        14.04700        21.47500
H           9.97500        13.89400        21.43100
C           8.00400        11.78000        20.87200
O           7.23000        11.79200        22.08000
C           6.75100        10.58300        22.68700
O           6.24000        11.05200        23.94300
C           7.15000        11.05600        25.05200
C           7.47700        12.46700        25.51100
O           8.27200        13.07500        24.48200
H           7.98800        12.69800        23.60100
C           8.16300        12.47600        26.86700
O           7.91200        13.85300        27.18200
H           8.35500        14.37600        26.45300
C           6.16600         8.81800        25.85100
O           6.95500         7.64800        25.59200
H           6.54100         6.77200        25.34400
C           6.69300        10.19600        26.22000
O           7.39600        10.18700        27.47100
C           7.33300        11.58700        27.77900
O           7.93000        11.62200        29.08300
C           7.20800        11.51600        30.31900
C           7.23500        10.10600        30.88700
O           6.66200         9.20300        29.93000
H           7.19100         9.36600        29.09700
C           6.27600         9.97500        32.05800
O           6.02800         8.66900        32.59700
H           5.72000         8.74900        33.54500
C           8.04300        13.72400        31.05600
O           9.02800        14.40800        31.84400
H           9.17100        15.36600        31.59800
C           7.80000        12.28700        31.48700
O           7.04900        12.13100        32.69900
C           6.96000        10.77300        33.15600
O           6.09400        10.74400        34.30000
C           6.78200        10.77100        35.55900
C           7.13100        12.10400        36.20100
O           7.76100        13.08700        35.36600
H           7.35000        12.99200        34.45900
C           8.08600        11.99200        37.37800
O           8.76300        13.05800        38.05900
H           9.49600        12.65300        38.60400
C           5.51300         8.70100        36.36700
O           6.57000         7.74100        36.22800
H           5.99700         6.92500        36.15400
C           5.98300        10.11400        36.67200
O           6.87900        10.00000        37.78700
C           7.32500        11.20300        38.43100
O           8.04500        10.96800        39.64900
C          13.61800        24.57900         4.27300
C          12.78500        25.82000         4.54800
O          13.02900        26.88600         3.61900
H          13.27900        26.37500         2.79700
C          13.33700        26.12800         5.93100
O          12.78800        27.32600         6.49700
H          12.58500        27.95800         5.74900
C          13.79800        22.19700         4.77000
O          13.54700        21.12400         5.68900
H          13.81100        20.21600         5.36100
C          13.31400        23.52600         5.32700
O          13.95300        23.85200         6.57000
C          13.31500        25.05900         7.01100
O          14.33600        25.05300         8.01900
C          13.78700        24.68400         9.29300
C          14.22500        23.26900         9.63500
O          13.82300        22.19000         8.77900
H          13.71100        22.38500         7.80500
C          13.80800        22.84000        11.03200
O          14.45700        21.61300        11.39500
H          14.24000        20.83700        10.80400
C          13.50400        27.04900        10.22800
O          13.65200        28.16200        11.12200
H          13.42700        28.98300        10.59800
C          14.04600        25.64500        10.44200
O          13.48100        25.21800        11.69000
C          14.08600        23.95900        12.02200
O          13.25200        23.75800        13.17200
C          13.62200        23.92800        14.54800
C          13.19400        25.27900        15.09800
O          13.50700        26.45100        14.33300
H          13.77700        26.16700        13.41300
C          13.81400        25.46000        16.47400
O          13.56900        26.70200        17.15100
H          13.76000        27.53000        16.62400
C          13.46200        21.47000        14.93700
O          13.03400        20.40600        15.80000
H          13.38900        19.56000        15.40300
C          13.23200        22.84500        15.54100
O          13.85000        23.07500        16.81600
C          13.43600        24.31800        17.40300
O          14.16600        24.42600        18.63400
C          13.87200        23.88100        19.92800
C          14.37200        22.49500        20.30000
O          13.81700        21.50800        19.41800
H          14.24100        21.67100        18.52700
C          14.13500        22.11100        21.75200
O          14.99000        20.98300        21.98800
H          14.83900        20.32000        21.25400
C          14.15600        26.23400        20.82300
O          14.51100        27.29700        21.71900
H          14.24800        28.17400        21.31700
C          14.40200        24.75200        21.05600
O          13.90300        24.43800        22.36400
C          14.49300        23.19100        22.75900
O          13.90400        22.85300        24.02300
C          14.65500        23.17400        25.20300
C          14.29400        24.52700        25.79400
O          14.77300        25.48800        24.84200
H          14.33400        25.33300        23.95600
C          14.89400        25.05300        27.08800
O          14.00100        26.10800        27.47300
H          14.32800        26.92700        27.00200
C          14.30600        20.79000        25.92500
O          13.96800        19.65200        26.73200
H          14.38700        18.91200        26.20600
C          14.35700        22.24300        26.36700
O          15.24200        22.63800        27.42600
C          14.74500        23.85200        28.00800
O          15.57400        23.84600        29.17900
C          14.89600        23.44400        30.37800
C          15.24200        22.07300        30.93700
O          14.98700        21.13000        29.88600
H          15.20600        21.70000        29.09400
C          14.62500        21.69300        32.27300
O          14.94300        20.41200        32.83600
H          14.40300        19.70300        32.38200
C          13.90900        25.54800        31.19400
O          14.09300        26.54900        32.20500
H          14.01800        27.46500        31.81100
C          14.98900        24.51000        31.45600
O          14.62700        24.12000        32.78900
C          14.97500        22.80500        33.24800
O          13.95900        22.89000        34.25800
C          14.61600        23.02800        35.52600
C          14.19800        24.41700        35.98100
O          14.78400        25.45100        35.17600
H          14.67000        25.17800        34.22100
C          14.48700        24.87600        37.40100
O          13.58300        25.81900        37.99400
H          13.21400        26.52000        37.38300
C          14.19300        20.65300        35.97600
O          13.96700        19.51000        36.81400
H          14.30800        18.68100        36.37200
C          14.08500        22.05100        36.56300
O          14.81500        22.36900        37.75700
C          14.40300        23.64000        38.28100
O          14.91700        23.79300        39.61300
C          14.13500        23.50300        40.78100
C          14.18700        22.02700        41.14200
O          13.61900        21.19300        40.12300
H          13.89000        21.53100        39.22100
C          13.49400        23.10000         0.80200
O          14.20800        21.91000         1.16700
H          13.99400        21.06800         0.67200
C          13.77700        27.23500        -0.14500
O          13.87700        28.12800         0.97400
H          13.52100        29.03400         0.74600
C          14.16900        25.80400         0.18500
O          13.46900        25.47900         1.39500
C          13.93000        24.17600         1.78300
O          13.23700        23.98200         3.02500
C           9.31900        20.65900         0.46000
C           9.79000        17.72800        42.65000
O           9.38000        16.87500        41.57100
H           9.64800        17.30900        40.71100
C           8.56100        18.94500         2.13000
O           8.63200        17.58800         2.58900
H           8.19300        16.99900         1.91000
C          10.11300        22.85600         1.52800
O           9.29300        23.76000         0.77300
H           9.72600        24.65200         0.64000
C           9.79300        21.38200         1.71000
O           8.80000        21.21400         2.73300
C           9.00900        19.88700         3.23600
O           8.40100        19.99000         4.53200
C           9.18800        20.13700         5.72200