# freq=raman b3lyp/6-31+g(2d,p) geom=connectivity

493 9000.com

0 1
C           8.11300         7.94500         2.91100
C           7.67200         9.32100         3.38200
O           7.88400        10.37200         2.42700
H           7.60700         9.99500         1.54400
C           8.13900         9.68000         4.78300
O           7.47800        10.76500         5.44900
H           7.86700        10.96800         6.34800
C           8.15000         5.50900         3.63800
O           7.69300         4.80000         2.47800
H           7.79500         3.81600         2.62200
C           7.79300         6.94000         4.00600
O           8.37700         7.28300         5.27200
C           7.83000         8.53000         5.72700
O           8.59500         8.68100         6.93200
C           7.93700         8.46500         8.18800
C           8.39500         7.15900         8.81500
O           7.96900         6.11500         7.92700
H           8.13500         6.40900         6.98500
C           7.91700         6.75300        10.20000
O           8.56900         5.62500        10.80200
H           8.18000         5.46100        11.70800
C           7.88600        10.93600         8.98400
O           8.24800        11.54100         7.73500
H           7.98800        12.50600         7.75400
C           8.31500         9.49900         9.23600
O           7.74700         9.19300        10.51700
C           8.13500         7.94700        11.11500
O           7.24900         7.76200        12.22800
C           7.76600         8.16200        13.50600
C           7.33200         9.50800        14.06300
O           7.71200        10.50100        13.09900
H           7.43900        10.37900        12.14400
C           7.94300         9.83900        15.41500
O           7.51800        11.10900        15.93200
H           7.86300        11.24300        16.86100
C           7.88800         5.73700        14.44400
O           7.79000         5.04000        13.19400
H           7.93200         4.05400        13.28600
C           7.42300         7.17500        14.61000
O           8.03400         7.49900        15.86800
C           7.59300         8.75000        16.41500
O           8.43300         8.95100        17.56100
C           7.88000         8.52400        18.81500
C           8.40200         7.14500        19.18300
O           8.07800         6.11600        18.23700
H           8.21200         6.53200        17.33700
C           7.88500         6.78200        20.56500
O           8.47700         5.51500        20.89100
H           8.19400         5.22100        21.80300
C           7.82100        10.94800        19.65800
O           8.25400        11.70900        18.52100
H           7.96700        12.66500        18.57700
C           8.33800         9.53200        19.85700
O           7.85100         9.15100        21.15200
C           8.27800         7.84800        21.57500
O           7.63000         7.52900        22.81500
C           8.20400         8.03400        24.02900
C           7.73800         9.39700        24.51600
O           8.10000        10.38700        23.54300
H           7.97800         9.91500        22.67000
C           8.30800         9.81900        25.86000
O           7.82900        11.05900        26.40000
H           8.15800        11.24600        27.32500
C           8.74200         5.69800        24.64400
O           8.32400         4.87400        23.54600
H           8.53100         3.93800        23.83100
C           8.00200         6.95300        25.07800
O           8.53000         7.40600        26.33300
C           8.15500         8.68600        26.86200
O           9.01800         8.86300        27.99500
C           8.37800         8.45900        29.21400
C           8.92200         7.12100        29.68700
O           8.51700         6.09300        28.77200
H           8.64700         6.32000        27.80600
C           8.42000         6.70800        31.06100
O           9.19100         5.59800        31.54300
H           8.95500         5.39200        32.49300
C           7.93400        10.85900        30.10800
O           8.32900        11.55000        28.91400
H           8.62400        12.46000        29.20500
C           8.50800         9.47100        30.34000
O           7.82400         9.04100        31.52600
C           8.49800         7.87800        32.02800
O           7.86400         7.62800        33.29000
C           8.48300         7.98100        34.53600
C           7.86100         9.27600        35.03400
O           7.91700        10.40300        34.14800
H           7.75200         9.98300        33.25600
C           8.39300         9.68100        36.39900
O           7.82000        10.88500        36.93000
H           8.21200        11.26000        37.77000
C           8.86800         5.59200        35.27300
O           8.64900         4.98800        33.99000
H           8.70000         4.00300        34.15600
C           8.22400         6.92900        35.60200
O           8.78800         7.34800        36.85300
C           8.15600         8.53000        37.36400
O           8.92900         8.79100        38.54400
C           8.29700         8.40200        39.77300
C           8.87500         7.08700        40.27000
O           8.85700         5.99700        39.33700
H           9.23400         6.36600        38.48700
C           8.22200         6.76600        -0.46900
O           8.70300         5.62000         0.24900
H           8.20200         5.58300         1.11400
C           7.98300        10.79200        40.42600
O           8.67000        11.53600        39.40900
H           8.50800        12.49900        39.62500
C           8.45900         9.42100        -1.18500
O           7.65900         9.02000        -0.06400
C           8.24200         7.87300         0.57200
O           7.41000         7.60000         1.70900
C           3.79100         4.51500         0.39200
C           4.01900         3.09400        42.94900
O           3.96400         2.09900        41.91600
H           4.34100         2.49000        41.07700
C           3.31200         2.73000         2.17100
O           3.46200         1.42400         2.74500
H           3.19600         1.36700         3.70700
C           3.88400         6.80300         1.26200
O           4.48400         7.50800         0.16600
H           4.49600         8.46200         0.46700
C           4.36500         5.38100         1.50100
O           3.71100         5.00600         2.72200
C           3.95000         3.66800         3.18300
O           3.32800         3.71500         4.47500
C           4.10200         4.03100         5.64200
C           3.68100         5.42900         6.06600
O           3.99700         6.30800         4.97700
H           3.82200         5.87500         4.09300
C           4.16200         5.81100         7.45600
O           3.59200         7.06100         7.87100
H           3.78500         7.26400         8.83100
C           4.03800         1.58300         6.45900
O           3.25800         1.09200         5.35900
H           3.17300         0.12300         5.59000
C           3.72600         3.04500         6.73500
O           4.25800         3.47400         7.99700
C           3.74900         4.73700         8.44900
O           4.51100         4.77900         9.66500
C           3.78800         4.47300        10.86600
C           4.18600         3.08800        11.35100
O           3.82800         2.12600        10.34900
H           3.87600         2.59000         9.46400
C           3.71000         2.77000        12.75900
O           4.07900         1.43900        13.15100
H           3.89900         1.26300        14.11900
C           3.68200         6.86300        11.70700
O           4.04400         7.56900        10.51100
H           3.85400         8.54300        10.63800
C           4.16400         5.44600        11.97100
O           3.70700         5.16900        13.30300
C           4.26100         3.88600        13.63100
O           3.50100         3.60600        14.81600
C           4.07000         4.00800        16.07000
C           3.64700         5.38000        16.57100
O           3.86000         6.38800        15.57300
H           3.68400         5.99000        14.67300
C           4.35800         5.73800        17.86600
O           3.96200         7.02700        18.35600
H           4.25400         7.05400        19.31200
C           4.13800         1.61900        16.96500
O           3.49400         0.87600        15.91900
H           3.64200        -0.11100        15.97000
C           3.64800         3.04300        17.16600
O           4.25100         3.44400        18.40400
C           3.98300         4.74300        18.95200
O           4.75500         4.92500        20.14800
C           4.13200         4.53100        21.37900
C           4.58100         3.15300        21.83800
O           4.16300         2.15400        20.89700
H           4.21900         2.62300        20.01500
C           3.97700         2.82600        23.19400
O           4.29600         1.52800        23.71600
H           3.79100         1.34300        24.55900
C           3.88500         6.88000        22.19300
O           4.28400         7.65100        21.05000
H           4.11000         8.63000        21.15300
C           4.44700         5.50300        22.50400
O           3.83800         5.21100        23.77000
C           4.32500         3.92600        24.18400
O           3.60200         3.64900        25.39300
C           4.21400         4.04200        26.63000
C           3.88500         5.46100        27.06500
O           4.25900         6.44500        26.09000
H           3.77600         6.18300        25.25500
C           4.54000         5.72800        28.41100
O           4.19100         7.00200        28.97000
H           4.60900         7.13100        29.87000
C           4.17400         1.56300        27.40200
O           3.69500         0.86700        26.24200
H           3.89400        -0.08900        26.45700
C           3.78900         3.01000        27.66200
O           4.30800         3.36600        28.95200
C           3.98300         4.69700        29.37800
O           4.73700         4.68600        30.59900
C           4.07800         4.39300        31.84000
C           4.46500         3.00500        32.32300
O           4.15000         1.98400        31.36500
H           4.16000         2.41100        30.46100
C           3.95400         2.71100        33.72400
O           4.49800         1.50700        34.28400
H           3.92500         1.31400        35.08000
C           4.32900         6.90800        32.68100
O           5.10400         7.58000        31.67700
H           4.77400         8.52200        31.61800
C           4.57400         5.41700        32.84800
O           4.08100         5.17800        34.17500
C           4.41600         3.85400        34.61400
O           3.71000         3.78800        35.86200
C           4.17800         4.03300        37.19600
C           3.81500         5.43800        37.64900
O           3.88500         6.39100        36.57800
H           3.71100         5.84100        35.76100
C           4.38900         5.70400        39.03100
O           4.20100         7.08300        39.38100
H           4.50200         7.27500        40.31500
C           3.86400         1.64800        37.96800
O           3.55300         0.89100        36.79000
H           3.57800        -0.10500        36.88100
C           3.48800         3.10600        38.18200
O           3.87900         3.36200        39.53900
C           3.78400         4.71300        40.01200
O           4.51900         4.71000        41.24500
C           7.94100        16.23900         2.98800
C           7.59300        17.63700         3.47200
O           7.79300        18.60300         2.43000
H           7.52100        18.17200         1.57000
C           8.16600        18.01900         4.82800
O           7.55100        19.18000         5.40400
H           7.96400        19.32200         6.30400
C           8.22900        13.82800         3.76000
O           8.07900        13.06400         2.55500
H           7.81600        12.12400         2.77200
C           7.66000        15.20400         4.06500
O           8.24900        15.55400         5.32600
C           7.83300        16.85900         5.75300
O           8.53000        17.09700         6.98400
C           8.05500        16.62500         8.25400
C           8.59200        15.26600         8.67200
O           8.25500        14.24600         7.72100
H           8.56300        14.64400         6.85700
C           8.04600        14.99000        10.06400
O           8.53600        13.79000        10.68100
H           8.02800        13.72300        11.54000
C           7.96800        19.05400         9.02400
O           8.61700        19.80500         7.98800
H           8.35500        20.76100         8.12200
C           8.47800        17.64800         9.29600
O           7.86700        17.43300        10.57600
C           8.32000        16.14400        11.01500
O           7.54700        15.84100        12.18500
C           7.94400        16.19500        13.51800
C           7.34900        17.53300        13.92400
O           7.83400        18.65400        13.17000
H           7.79500        18.43300        12.19600
C           7.79600        17.77800        15.35500
O           7.30500        19.00400        15.91700
H           7.65900        19.18100        16.83500
C           8.27700        13.80900        14.12300
O           7.58600        13.06000        13.11400
H           7.92800        12.12000        13.13000
C           7.55500        15.09500        14.49200
O           7.93800        15.47600        15.82100
C           7.44800        16.70600        16.37500
O           8.35700        16.91300        17.46500
C           7.73800        16.61600        18.72500
C           8.33800        15.31500        19.23400
O           7.77800        14.28700        18.40400
H           7.89400        14.54700        17.44500
C           7.88500        15.04500        20.65900
O           8.65700        13.96800        21.21100
H           8.23400        13.61300        22.04500
C           7.28100        19.06600        19.30200
O           7.91800        19.81500        18.25600
H           7.71400        20.78600        18.37400
C           7.95800        17.76400        19.69700
O           7.37300        17.35400        20.94100
C           7.95500        16.22700        21.61200
O           7.25300        16.00700        22.84500
C           7.94400        16.36100        24.05200
C           7.45900        17.67500        24.64100
O           7.48600        18.71400        23.65100
H           7.03200        18.37200        22.82900
C           8.11700        18.00800        25.97000
O           7.58100        19.24100        26.47400
H           7.85400        19.30800        27.43300
C           8.24600        13.87900        24.75100
O           7.65500        13.17300        23.65000
H           8.02500        12.25100        23.76300
C           7.73400        15.27000        25.08900
O           8.37900        15.67300        26.30500
C           7.85900        16.85700        26.92800
O           8.59000        16.95800        28.15800
C           8.01900        16.56100        29.41400
C           8.68300        15.29400        29.93000
O           8.58800        14.19200        29.01600
H           8.94400        14.57300        28.16300
C           8.14600        14.80600        31.26500
O           8.72800        13.64800        31.88000
H           8.31500        13.38000        32.75100
C           7.68500        18.95300        30.19200
O           8.07500        19.70700        29.03500
H           7.85800        20.67200        29.18100
C           8.39300        17.62900        30.42900
O           7.94500        17.23200        31.73300
C           8.32500        15.94900        32.25100
O           7.40000        15.89900        33.34700
C           8.12300        16.22300        34.54400
C           7.57000        17.53500        35.07600
O           7.79800        18.54200        34.07900
H           7.43400        18.15700        33.23100
C           8.20200        17.89800        36.41000
O           7.49500        19.06900        36.84400
H           7.74200        19.13700        37.81100
C           8.50700        13.77100        35.24400
O           7.85300        13.03300        34.20200
H           7.83100        12.04300        34.34100
C           7.98800        15.15100        35.61300
O           8.51400        15.52600        36.89500
C           8.03000        16.77200        37.41700
O           8.77900        16.90900        38.63300
C           8.04200        16.68900        39.84500
C           8.53400        15.32500        40.30000
O           8.26200        14.30200        39.33000
H           8.20500        14.69900        38.41400
C           7.88300        14.92200        -0.46000
O           8.42900        13.73500         0.13400
H           8.13200        13.70500         1.08800
C           8.10800        19.08200        40.61400
O           8.33400        19.81100        39.39800
H           8.14500        20.78900        39.48300
C           8.52400        17.65000        -1.15300
O           7.82200        17.31900         0.05400
C           8.10600        16.01200         0.57500
O           7.30200        15.87700         1.75600
C           3.95500        12.62200         0.07300
C           4.24700        11.23800        42.69400
O           3.98400        10.17700        41.76400
H           4.18500        10.53500        40.85200
C           3.56300        10.94500         1.94500
O           3.71400         9.63300         2.50700
H           3.03900         9.51600         3.23500
C           3.92400        15.01100         0.82300
O           4.42200        15.72800        -0.31600
H           4.31300        16.71100        -0.17100
C           4.39700        13.60300         1.14700
O           3.83800        13.36000         2.44600
C           3.89400        12.02300         2.96400
O           3.10500        11.79500         4.14100
C           3.69200        12.12600         5.40800
C           3.40900        13.52800         5.92100
O           3.76300        14.61300         5.05000
H           3.56900        14.29600         4.12100
C           4.06100        13.86300         7.25200
O           3.61300        15.14800         7.70700
H           3.80400        15.18800         8.68800
C           4.02400         9.72100         6.24500
O           3.29400         8.90500         5.31700
H           3.75000         8.01700         5.38300
C           3.46700        11.10900         6.51500
O           4.12500        11.52900         7.71900
C           3.69200        12.78600         8.25900
O           4.41100        12.98800         9.48500
C           3.72700        12.80500        10.73300
C           3.84100        11.39500        11.28800
O           3.48300        10.43400        10.28400
H           3.85000        10.84600         9.45000
C           3.14700        11.08600        12.60500
O           3.47900         9.77900        13.09500
H           3.26200         9.65000        14.06200
C           3.69500        15.16900        11.57300
O           4.06200        15.80200        10.33900
H           3.77800        16.76100        10.32000
C           4.21300        13.76000        11.81200
O           3.65900        13.42300        13.09200
C           3.84700        12.06900        13.52900
O           3.22500        11.89500        14.81000
C           3.89100        12.25100        16.03100
C           3.58700        13.63400        16.58300
O           3.84200        14.66800        15.62100
H           3.57200        14.40900        14.69400
C           4.10900        13.97400        17.96900
O           3.39900        15.01900        18.65000
H           3.77900        15.29600        19.53200
C           3.86600         9.80200        16.79300
O           3.16700         9.11100        15.74600
H           3.45700         8.15500        15.70900
C           3.54900        11.25100        17.12300
O           4.22600        11.53300        18.35700
C           3.81000        12.80000        18.88700
O           4.51600        13.00900        20.11900
C           3.82100        12.69000        21.33400
C           4.21700        11.30100        21.80600
O           3.90900        10.28000        20.84600
H           4.04900        10.52500        19.88700
C           3.61500        11.08900        23.18600
O           4.10700         9.77000        23.46300
H           3.73900         9.50100        24.35300
C           3.61400        15.05400        22.11400
O           4.06300        15.76800        20.95300
H           3.74200        16.70500        21.09600
C           4.24400        13.69900        22.38900
O           3.67600        13.44200        23.68200
C           4.09400        12.15500        24.15800
O           3.44200        11.84400        25.39900
C           4.08500        12.21900        26.62600
C           3.79300        13.66400        26.99500
O           4.16900        14.68300        26.05700
H           3.69100        14.36900        25.23700
C           4.48800        13.82100        28.33700
O           4.48600        15.15500        28.86700
H           4.69200        15.06500        29.84200
C           4.04500         9.78700        27.35200
O           3.66700         9.11000        26.14500
H           3.87200         8.13100        26.13900
C           3.60300        11.21000        27.65600
O           4.11000        11.49200        28.96800
C           3.96800        12.85700        29.39000
O           4.71800        12.74700        30.60900
C           3.95200        12.53100        31.80300
C           4.29800        11.13700        32.29900
O           4.12500        10.03300        31.39800
H           4.36000        10.40600        30.50000
C           3.61600        10.77300        33.60700
O           4.12800         9.58800        34.23400
H           3.87500         9.57600        35.20100
C           3.81600        15.00800        32.52900
O           4.48500        15.78300        31.52300
H           3.92300        16.60100        31.40100
C           4.24000        13.58600        32.85900
O           3.35800        13.21400        33.92800
C           3.81400        11.98200        34.50600
O           3.16400        11.80600        35.77400
C           3.88200        12.16600        36.96300
C           3.56100        13.59100        37.38100
O           3.83000        14.58600        36.38200
H           3.59800        14.09900        35.53900
C           4.17000        13.92200        38.73400
O           3.85200        15.19100        39.32200
H           4.23500        15.30900        40.23900
C           3.97000         9.71500        37.78000
O           3.45800         9.01100        36.64000
H           3.74600         8.05400        36.68300
C           3.48500        11.13700        38.01000
O           4.10900        11.49400        39.25200
C           3.87300        12.82200        39.74100
O           4.68000        12.83500        40.92700
C           7.62900        24.52100         3.07400
C           7.25200        25.92200         3.52800
O           7.60400        26.85000         2.49200
H           7.27700        26.44400         1.63800
C           7.72900        26.33300         4.91100
O           7.10200        27.53700         5.37700
H           7.39800        27.59000         6.33100
C           7.79900        22.10300         3.81200
O           7.60100        21.36400         2.59900
H           7.72300        20.40400         2.85300
C           7.21400        23.47700         4.09800
O           7.69600        23.90600         5.38000
C           7.42500        25.21700         5.89700
O           8.26600        25.30700         7.05600
C           7.74200        24.91200         8.33300
C           8.26100        23.53500         8.71200
O           8.05200        22.46400         7.78000
H           7.98400        22.95400         6.91100
C           7.90900        23.14300        10.13800
O           8.61100        22.01100        10.67300
H           8.30100        21.68200        11.56500
C           7.39400        27.24700         9.14500
O           7.79700        28.07000         8.04000
H           7.57200        29.03100         8.19900
C           8.09300        25.92400         9.41100
O           7.64400        25.51000        10.71000
C           8.26000        24.27200        11.09300
O           7.45700        23.98900        12.24800
C           7.98500        24.50500        13.47900
C           7.26600        25.73800        14.00200
O           7.37800        26.78200        13.02400
H           7.32300        26.35600        12.12100
C           7.76500        26.19100        15.36400
O           7.11100        27.38300        15.82200
H           7.38400        27.37400        16.78400
C           7.93500        21.98400        14.19000
O           7.36300        21.17300        13.15400
H           7.56400        20.19900        13.26200
C           7.63100        23.43900        14.50300
O           8.12600        23.76400        15.81100
C           7.56300        24.99700        16.28300
O           8.33500        25.24800        17.46600
C           7.72500        24.82500        18.69400
C           8.22700        23.47900        19.18900
O           7.82900        22.52200        18.19700
H           8.04600        22.85600        17.28000
C           7.64600        23.03000        20.52000
O           8.26100        21.82700        21.00500
H           8.03400        21.73300        21.97400
C           7.29900        27.18500        19.50200
O           7.75300        27.87400        18.32800
H           7.97600        28.81700        18.57700
C           7.95800        25.84800        19.79500
O           7.40300        25.46400        21.06100
C           7.85800        24.17500        21.49700
O           7.18100        23.97900        22.74700
C           7.79400        24.28400        24.00800
C           7.23500        25.58800        24.55300
O           7.53900        26.58800        23.56900
H           7.30300        26.16900        22.69300
C           7.71000        26.01600        25.93200
O           7.09200        27.25500        26.30800
H           7.44100        27.47700        27.21900
C           8.29300        21.96400        24.67400
O           8.10600        21.22500        23.45800
H           8.01700        20.29100        23.80400
C           7.51900        23.21500        25.05400
O           8.12500        23.63500        26.28500
C           7.53100        24.81500        26.84500
O           8.29400        25.19000        28.00100
C           7.95400        24.70200        29.30700
C           8.35900        23.30400        29.74600
O           8.01300        22.28700        28.79500
H           8.13800        22.71200        27.89900
C           7.86200        22.94800        31.13800
O           8.56900        21.76700        31.54100
H           8.15900        21.46200        32.40000
C           7.96100        27.19000        30.17200
O           8.46800        27.98400        29.09000
H           8.09900        28.91000        29.16800
C           8.32400        25.72600        30.36700
O           7.64700        25.30300        31.55900
C           8.07700        24.06600        32.14500
O           7.27600        24.09100        33.33600
C           7.90700        24.39100        34.58900
C           7.38900        25.74900        35.03500
O           7.81500        26.78100        34.13300
H           7.49200        26.47600        33.23700
C           7.95300        26.10900        36.40000
O           7.32100        27.29100        36.91100
H           7.79400        27.58000        37.74300
C           8.00100        21.96100        35.39600
O           7.57100        21.25600        34.22200
H           7.70700        20.27600        34.36400
C           7.54400        23.38500        35.66900
O           8.18000        23.74700        36.90300
C           7.76300        25.01300        37.43600
O           8.64900        25.10400        38.56100
C           8.00600        24.70200        39.77900
C           8.45200        23.33700        40.27600
O           8.28000        22.38300        39.21800
H           8.90200        22.72900        38.51500
C           7.83800        22.94900        -0.46200
O           8.39200        21.75200         0.10400
H           7.91900        21.52700         0.95600
C           8.10400        27.18800        40.69100
O           8.75300        27.96800        39.67600
H           8.52500        28.92300        39.86700
C           8.27700        25.69000        -1.17100
O           7.45900        25.26700        -0.07100
C           7.95400        24.07400         0.55300
O           7.21200        24.05700         1.78100
C           3.73300        20.70600         0.15400
C           4.19300        19.38100        42.80500
O           4.18500        18.37000        41.78700
H           4.70700        18.73400        41.01600
C           3.48900        18.96000         2.01000
O           4.05600        17.73100         2.48600
H           3.84200        17.52100         3.44000
C           3.78500        23.11000         0.95200
O           4.42200        23.82200        -0.11800
H           4.00800        24.71500         0.05800
C           4.06500        21.65500         1.29400
O           3.41100        21.39600         2.54500
C           3.84900        20.09300         2.95700
O           3.23700        20.04500         4.25400
C           3.95900        20.42700         5.43300