# freq=raman b3lyp/6-31+g(d,p) geom=connectivity

400 6000.com

0 1
O           8.65100         7.24900        12.17600
C           9.28500         7.57100        13.42200
C           8.95500         8.94900        13.97300
O           9.34300         9.83700        12.91500
H           9.05800         9.43300        12.04500
C           9.67200         9.24700        15.27900
O           9.52300        10.49400        15.97400
H           9.93200        10.52700        16.88600
C           9.32700         5.12400        14.13900
O           8.91400         4.58300        12.87600
H           9.01100         3.58800        12.89700
C           8.91300         6.54600        14.48100
O           9.51700         6.85200        15.74700
C           9.26600         8.16600        16.26700
O           9.93000         8.31700        17.53000
C           9.11400         8.05900        18.68200
C           9.49000         6.65200        19.11700
O           9.43100         5.66100        18.08100
H           9.63100         6.05000        17.18200
C           8.99900         6.32400        20.51800
O           9.46400         5.00900        20.85800
H           9.29700         4.87600        21.83500
C           9.52200        10.36800        19.50300
O          10.30300        10.99500        18.47600
H          10.28400        11.98300        18.62800
C           9.81500         8.89600        19.73900
O           9.19100         8.59200        20.99500
C           9.61000         7.31400        21.49600
O           8.85600         7.28100        22.71700

