# freq=raman b3lyp/6-31+g(2d,p) geom=connectivity

350 9908/9908.com

0 1
C           8.34400         7.79200         3.11300
C           7.71300         9.08800         3.59500
O           7.96200        10.10100         2.61000
H           7.78800         9.70000         1.71100
C           8.20800         9.54800         4.95700
O           7.58100        10.72800         5.47900
H           8.10400        10.97600         6.29400
C           8.84300         5.40900         3.85800
O           8.29000         4.68200         2.75200
H           8.38000         3.69500         2.88400
C           8.26000         6.76300         4.22900
O           8.83900         7.23700         5.45300
C           8.19100         8.41100         5.96500
O           8.74900         8.72900         7.24900
C           8.16900         8.35800         8.50800
C           8.94300         7.12700         8.95000
O           8.90500         6.10800         7.94000
H           9.10700         6.52200         7.05200
C           8.43900         6.66500        10.30800
O           9.07800         5.48300        10.81000
H           8.77200         5.38900        11.75700
C           7.89200        10.85500         9.10000
O           8.52200        11.49600         7.98100
H           8.12000        12.40900         7.90200
C           8.33100         9.46600         9.53500
O           7.95300         9.04200        10.85300
C           8.59500         7.82900        11.27300
O           7.84800         7.42700        12.43000
C           8.39200         7.91200        13.66700
C           8.00700         9.29700        14.16000
O           8.47100        10.29700        13.24100
H           8.07100        10.00600        12.37200
C           8.38300         9.62200        15.59700
O           7.68200        10.72900        16.18000
H           8.08500        10.93100        17.07300
C           8.79100         5.52400        14.48600
O           8.09000         4.87700        13.41400
H           8.44800         3.94300        13.38700
C           8.16700         6.88300        14.76300
O           8.75900         7.30900        15.99800
C           8.12400         8.46900        16.55300
O           8.93200         8.72800        17.71000
C           8.45600         8.27300        18.98600
C           9.23200         7.07600        19.51000
O           9.37600         5.97400        18.60400
H           9.31200         6.39700        17.70000
C           8.65900         6.43400        20.76300
O           9.20400         5.19900        21.24900
H           8.91600         4.97600        22.18000
C           8.16500        10.69000        19.80800
O           8.51400        11.42900        18.62800
H           8.29400        12.37600        18.86200
C           8.65100         9.28100        20.10700
O           8.11300         8.73100        21.31800
C           8.82400         7.56700        21.76300
O           7.96200         7.24700        22.86500
C           8.40800         7.62400        24.17600
C           7.81000         8.97600        24.52700
O           7.97700        10.04600        23.58500
H           7.74300         9.58200        22.73100
C           8.19900         9.36600        25.94400
O           7.35800        10.45100        26.36000
H           7.83400        10.78200        27.17500
C           9.01700         5.40800        25.16900
O           9.00400         4.60700        23.97900
H           8.54700         3.72200        24.07500
C           8.09700         6.61400        25.26800
O           8.38600         7.01500        26.61500
C           7.89100         8.30800        26.99200
O           8.69200         8.68800        28.12100
C           8.14700         8.32500        29.39700
C           8.79500         7.05500        29.92400
O           8.46200         5.91700        29.11500
H           8.55200         6.20900        28.16300
C           8.41900         6.76200        31.36800
O           9.23500         5.82200        32.08000
H           8.71100         5.55500        32.88900
C           7.76800        10.82900        29.85800
O           8.38100        11.52100        28.76100
H           8.27000        12.48900        28.98600
C           8.34700         9.50600        30.33300
O           7.82100         9.26200        31.64600
C           8.50100         8.08600        32.10900
O           7.86500         7.84500        33.37300
C           8.48200         8.00900        34.65900
C           7.92300         9.32500        35.17500
O           8.31400        10.37800        34.28200
H           8.16500        10.16700        33.31600
C           8.29700         9.78800        36.57400
O           7.57200        10.93700        37.03300
H           7.81700        11.21200        37.96300
C           8.53800         5.52000        35.44100
O           8.19300         4.89300        34.19700
H           8.29100         3.90000        34.12900
C           8.20100         6.97200        35.73400
O           8.66500         7.36900        37.03300
C           8.02400         8.58100        37.45700
O           8.54600         8.79000        38.77700
C           7.92200         8.29100        39.96900
C           8.45300         6.91700        40.34500
O           8.19400         5.98600        39.28500
H           8.11500         6.54100        38.45600
C           8.04500         6.38300        -0.33900
O           9.01300         5.39700         0.04900
H           8.77200         5.22800         1.00500
C           7.73300        10.70700        40.72200
O           8.22400        11.42100        39.57800
H           8.10600        12.40800        39.68600
C           8.17800         9.29700        -0.97600
O           7.51600         8.73900         0.16800
C           8.19800         7.55800         0.61400
O           7.66100         7.35500         1.92900
C           3.92400         4.19200         0.41700
C           4.38500         2.79800        42.86100
O           4.04400         1.72500        41.97100
H           4.30200         1.88300        41.01800
C           3.94900         2.49800         2.23700
O           4.59000         1.29200         2.67600
H           4.22600         0.99900         3.56000
C           4.24500         6.52500         1.29900
O           3.91000         7.16900         0.06100
H           3.80700         8.15100         0.22000
C           4.40500         5.04100         1.58300
O           3.72600         4.87100         2.83600
C           4.23700         3.59600         3.24900
O           3.71500         3.37900         4.56700
C           4.40400         3.79800         5.75400
C           4.14100         5.23300         6.17800
O           4.39600         6.18800         5.13700
H           4.06900         5.85200         4.25400
C           4.77900         5.56800         7.51600
O           4.55400         6.93000         7.90800
H           4.89300         6.96900         8.84800
C           4.40900         1.36900         6.55700
O           3.63900         0.67400         5.56500
H           3.88800        -0.29200         5.63800
C           3.99400         2.80500         6.83000
O           4.44100         3.18600         8.13900
C           4.23300         4.55600         8.51000
O           4.93600         4.53900         9.76100
C           4.25200         4.20600        10.97900
C           4.62300         2.79600        11.40900
O           4.15700         1.83400        10.45200
H           4.33700         2.28100         9.57600
C           4.16400         2.54100        12.83500
O           4.45800         1.23200        13.34500
H           4.01400         1.14900        14.23700
C           4.12100         6.63400        11.80700
O           4.45700         7.18000        10.52300
H           4.21900         8.15100        10.55100
C           4.68800         5.23800        12.00600
O           4.23200         4.89900        13.32400
C           4.65800         3.61200        13.79400
O           3.91100         3.41800        15.00400
C           4.40800         3.69700        16.32100
C           4.07300         5.12700        16.71200
O           4.32400         6.08000        15.66900
H           4.30500         5.64000        14.77100
C           4.56100         5.51400        18.09800
O           4.31800         6.85900        18.53700
H           4.55800         6.88300        19.50700
C           3.79100         1.42300        17.19800
O           3.50100         0.72200        15.98000
H           3.69300        -0.25400        16.08200
C           3.57800         2.92200        17.33200
O           4.06900         3.21000        18.65000
C           4.03600         4.55300        19.15300
O           4.90200         4.49700        20.29500
C           4.17600         4.29400        21.51600
C           4.47800         2.82900        21.78800
O           3.93900         1.88500        20.85100
H           3.98900         2.33700        19.96100
C           4.05600         2.44000        23.19500
O           4.46300         1.13200        23.62200
H           4.38000         1.02300        24.61300
C           4.45900         6.67900        22.43100
O           4.86400         7.28300        21.19400
H           4.46400         8.19600        21.28100
C           4.74100         5.19500        22.60200
O           4.11100         4.77900        23.82300
C           4.42200         3.45100        24.26900
O           3.83300         3.22200        25.55700
C           4.49700         3.61800        26.76600
C           4.18400         5.02900        27.23800
O           4.29200         5.99900        26.18600
H           4.00300         5.55600        25.33800
C           4.82200         5.36600        28.57500
O           4.42700         6.66000        29.05300
H           4.60200         6.57100        30.03400
C           4.49700         1.16400        27.59200
O           4.13200         0.50000        26.37400
H           4.26000        -0.48800        26.45500
C           4.19400         2.62600        27.87800
O           4.76000         2.86500        29.17400
C           4.45100         4.22600        29.50900
O           5.09600         4.45400        30.77100
C           4.31800         4.21300        31.95200
C           4.60700         2.83300        32.51900
O           4.37100         1.78900        31.56400
H           4.75300         2.19100        30.73100
C           3.76700         2.60000        33.76400
O           3.97800         1.26700        34.25400
H           3.16300         1.04900        34.79100
C           4.19000         6.58700        32.93700
O           4.38200         7.26500        31.68700
H           4.11100         8.20800        31.87800
C           4.73400         5.17300        33.05500
O           4.13800         4.91200        34.33400
C           4.25400         3.57000        34.82900
O           3.38700         3.57800        35.97200
C           4.05500         3.75800        37.22900
C           4.17000         5.21100        37.66300
O           4.68800         6.16200        36.72200
H           4.19000         5.99200        35.87200
C           4.78700         5.34700        39.04600
O           4.75500         6.68000        39.57500
H           4.87300         6.76800        40.56400
C           3.61900         1.42200        38.10400
O           3.44800         0.64800        36.90800
H           3.78200        -0.27000        37.12100
C           3.41600         2.91300        38.31900
O           4.13100         3.07100        39.55300
C           4.16800         4.41000        40.07000
O           4.81700         4.33800        41.34800
C           8.02300        16.00800         3.12900
C           7.56300        17.40600         3.50900
O           8.01600        18.45900         2.64500
H           7.72800        18.15600         1.73700
C           8.17600        17.77500         4.85000
O           7.43300        18.96100         5.17000
H           7.86000        19.30100         6.00800
C           8.14800        13.63800         3.88000
O           7.38000        12.99100         2.85500
H           7.50200        12.00200         2.93600
C           7.66600        15.03400         4.24000
O           8.26800        15.36400         5.50000
C           7.88900        16.69500         5.88000
O           8.56100        17.05200         7.09600
C           8.11100        16.67200         8.40500
C           8.56800        15.28900         8.83800
O           8.12800        14.26500         7.93400
H           8.62600        14.43800         7.08400
C           8.06600        14.86600        10.20900
O           8.67000        13.65300        10.68100
H           8.26800        13.31400        11.53200
C           8.07400        19.00600         9.07300
O           8.30200        19.70000         7.83800
H           8.34200        20.66900         8.08200
C           8.66700        17.65100         9.42600
O           8.11000        17.28800        10.69700
C           8.30100        15.96800        11.22900
O           7.33100        15.80500        12.27300
C           8.00500        16.14500        13.49400
C           7.28500        17.37000        14.03400
O           7.20000        18.39700        13.03500
H           7.31200        18.03800        12.10900
C           7.81500        17.82800        15.38300
O           7.06100        18.86300        16.02900
H           7.58900        19.26400        16.77800
C           8.30400        13.73300        14.34400
O           7.92200        12.93400        13.21500
H           8.30300        12.01700        13.33500
C           7.67500        15.10100        14.54800
O           8.09300        15.47100        15.87000
C           7.68400        16.72900        16.42500
O           8.67900        16.96200        17.43300
C           8.29600        16.59100        18.76600
C           8.77300        15.20600        19.17200
O           8.20200        14.18000        18.34800
H           8.33200        14.52500        17.41800
C           8.45700        14.77200        20.59300
O           8.95000        13.47600        20.96400
H           8.84300        13.49800        21.95900
C           8.08300        18.96800        19.57000
O           8.46900        19.69800        18.39600
H           8.28600        20.67700        18.48600
C           8.73800        17.61600        19.79800
O           8.14600        17.14400        21.01600
C           8.76500        15.94700        21.50800
O           8.14000        15.55800        22.74000
C           8.46300        16.05000        24.04900
C           7.79200        17.34700        24.47000
O           7.86000        18.48300        23.59500
H           7.52400        18.13200        22.72100
C           8.19200        17.79700        25.86600
O           7.68000        19.02200        26.40900
H           7.85500        19.13100        27.38800
C           8.64200        13.58200        25.05200
O           8.65300        12.88900        23.79500
H           8.55900        11.92600        24.04900
C           8.16200        15.02200        25.12700
O           8.56100        15.48700        26.42400
C           7.96600        16.70400        26.89800
O           8.63200        16.98400        28.13700
C           8.10200        16.59100        29.41200
C           8.40600        15.16800        29.85000
O           7.81500        14.19800        28.97400
H           8.00300        14.51900        28.04600
C           8.12800        14.84000        31.30800
O           8.82200        13.67400        31.77600
H           8.68200        13.45400        32.74200
C           8.29200        19.11000        30.10200
O           8.45300        19.69900        28.80400
H           8.27100        20.68100        28.85300
C           8.53900        17.64400        30.41700
O           8.07700        17.35500        31.74500
C           8.50300        16.04600        32.15400
O           7.71600        15.83600        33.33500
C           8.32800        16.19200        34.58300
C           7.71000        17.46800        35.13100
O           7.86800        18.49200        34.13800
H           7.76000        18.02400        33.26000
C           8.15100        17.78800        36.55000
O           7.50800        18.96800        37.05200
H           8.02200        19.31400        37.83700
C           8.74600        13.76800        35.41300
O           8.54600        12.99500        34.22000
H           8.57400        12.01700        34.42600
C           8.00200        15.08400        35.57100
O           8.39200        15.39500        36.91700
C           7.78900        16.59600        37.42000
O           8.55300        16.98900        38.56900
C           8.08500        16.54300        39.85000
C           8.56700        15.23300        40.45200
O           8.49400        14.09800        39.57700
H           8.97400        14.33400        38.73200
C           7.94300        14.79900        -0.27800
O           8.48900        13.57800         0.24200
H           8.09100        13.53800         1.15900
C           7.89100        18.96700        40.51100
O           8.43400        19.66900        39.38300
H           8.33400        20.65400        39.52600
C           8.43700        17.59800        -1.17000
O           7.86000        17.23800         0.09400
C           8.16500        15.96200         0.67400
O           7.40800        15.71000         1.86700
C           3.87400        12.44100         0.22900
C           4.11500        11.04800        42.83400
O           3.72200        10.10000        41.83100
H           4.13600        10.19600        40.92500
C           3.46700        10.74500         2.12900
O           4.13500         9.54800         2.55100
H           3.81600         9.36700         3.48100
C           3.61400        14.83200         0.90200
O           4.28700        15.47500        -0.18900
H           4.07700        16.44300        -0.05200
C           4.12300        13.46300         1.32600
O           3.37600        13.19800         2.52200
C           3.71100        11.91400         3.06900
O           3.02400        11.72500         4.31400
C           3.76100        12.00100         5.51400
C           3.50400        13.41500         6.01000
O           3.64700        14.40600         4.98200
H           3.33700        13.97000         4.13700
C           4.09300        13.73400         7.37500
O           3.65400        15.03200         7.80100
H           3.97400        15.16800         8.73900
C           4.03100         9.66900         6.13600
O           3.76700         8.85600         4.98400
H           3.99000         7.89700         5.16200
C           3.36800        10.97000         6.55900
O           3.94700        11.25700         7.84100
C           3.67500        12.59300         8.28900
O           4.49400        12.72100         9.46100
C           3.89800        12.26200        10.68300
C           4.31800        10.88800        11.17900
O           3.92600         9.86000        10.25800
H           3.96200        10.06200         9.27900
C           3.75900        10.62000        12.56700
O           4.14500         9.31600        13.02500
H           3.85600         9.07500        13.95200
C           3.66300        14.70200        11.54400
O           3.97800        15.42400        10.34500
H           3.73800        16.37400        10.54400
C           4.19500        13.29400        11.75800
O           3.69100        12.99700        13.06800
C           4.12600        11.71800        13.55100
O           3.46900        11.64200        14.82500
C           4.20000        11.90500        16.03100
C           3.91300        13.30900        16.53900
O           4.48400        14.19300        15.56400
H           4.24200        13.84400        14.65900
C           4.41500        13.66500        17.92900
O           3.78200        14.84400        18.44500
H           3.83300        14.87400        19.44300
C           4.16300         9.43100        16.69300
O           3.58900         8.68800        15.60700
H           3.70800         7.71300        15.79400
C           3.70100        10.84600        17.00000
O           4.40300        11.13200        18.21900
C           4.09000        12.42800        18.75100
O           4.75900        12.29100        20.01300
C           3.90600        12.27800        21.16700
C           4.12400        10.87900        21.72000
O           4.25100         9.82600        20.75400
H           4.42100        10.19900        19.84100
C           3.28400        10.67500        22.97100
O           3.31300         9.33700        23.48800
H           3.62600         9.34400        24.43800
C           4.70300        14.56800        21.71500
O           3.59100        15.37300        21.29800
H           3.75600        16.35900        21.29100
C           4.42100        13.18300        22.27400
O           3.78800        12.94100        23.54000
C           3.90400        11.59100        24.01300
O           3.20400        11.46200        25.25900
C           3.90100        11.70800        26.48900
C           3.59400        13.10600        26.99900
O           4.03700        14.09200        26.05500
H           3.70000        13.75900        25.17500
C           4.19100        13.48100        28.34600
O           3.68300        14.69600        28.91500
H           3.90400        14.88400        29.87200
C           4.09700         9.34300        27.37200
O           3.64200         8.61900        26.22000
H           4.01300         7.70500        26.38900
C           3.62500        10.76200        27.64600
O           4.25400        11.06800        28.90000
C           3.87800        12.37900        29.34600
O           4.67200        12.48100        30.53700
C           4.14800        12.24900        31.85300
C           4.43700        10.84400        32.35800
O           3.94900         9.87500        31.41900
H           4.22500        10.15600        30.50000
C           3.77900        10.61500        33.70800
O           3.81300         9.26200        34.18700
H           3.32200         9.26600        35.05800
C           3.94000        14.66100        32.56600
O           4.24000        15.38600        31.36500
H           4.02600        16.32700        31.62500
C           4.56400        13.30600        32.86200
O           4.08600        12.97300        34.17300
C           4.40000        11.65000        34.63200
O           3.70900        11.58300        35.88800
C           4.33600        11.94000        37.12800
C           3.82000        13.31600        37.51900
O           3.97700        14.30300        36.49000
H           3.76400        13.83100        35.63500
C           4.28500        13.63900        38.93000
O           3.67800        14.84900        39.40600
H           4.08800        15.04800        40.29600
C           4.22900         9.54300        37.88600
O           3.71900         8.70900        36.83600
H           4.06600         7.78100        36.97400
C           3.72300        10.95800        38.11300
O           4.13400        11.22100        39.46300
C           3.82900        12.55500        39.89400
O           4.60200        12.77200        41.08300
C           7.94100        24.36000         3.03500
C           7.40200        25.69800         3.51300
O           7.84000        26.67900         2.56200
H           7.85900        26.25500         1.65600
C           7.87500        26.11400         4.89700
O           7.36000        27.38200         5.32800
H           7.76200        27.55400         6.22700
C           8.10800        21.98000         4.02900
O           7.65900        21.13100         2.96200
H           8.05800        20.25700         3.24200
C           7.51200        23.37600         4.11100
O           8.03200        23.76600         5.39100
C           7.47100        25.00400         5.85300
O           8.29100        25.11500         7.02500
C           7.64600        24.71200         8.24200
C           8.35100        23.46700         8.75500
O           8.20300        22.41900         7.78700
H           8.34100        22.63800         6.82100
C           7.95200        22.96000        10.13200
O           8.64500        21.83300        10.68800
H           8.19500        21.52100        11.52500
C           7.51500        27.15200         8.99900
O           7.95500        27.92600         7.87300
H           7.85900        28.91300         8.00000
C           7.98700        25.74000         9.30800
O           7.34500        25.38300        10.54100
C           7.93400        24.17500        11.04400
O           7.14400        23.89500        12.21000
C           7.95000        24.22000        13.35200
C           7.38100        25.49300        13.95700
O           7.60700        26.61000        13.08500
H           7.13000        26.33800        12.24900
C           8.05300        25.78200        15.29000
O           7.53700        26.92600        15.98600
H           8.02800        27.07100        16.84500
C           8.30800        21.75500        14.03300
O           7.70000        20.90100        13.05300
H           7.69800        19.95800        13.38400
C           7.76200        23.12700        14.39200
O           8.36400        23.40900        15.66300
C           7.87900        24.62200        16.25700
O           8.73900        24.77400        17.39600
C           8.27000        24.55000        18.73300
C           8.72700        23.16000        19.14400
O           8.30800        22.16700        18.19600
H           8.43800        22.53600        17.27500
C           8.29900        22.84300        20.56700
O           8.96900        21.75600        21.22300
H           8.46800        21.47100        22.04000
C           8.23000        27.02000        19.56400
O           8.79000        27.67300        18.41500
H           8.74100        28.66400        18.54000
C           8.62400        25.57100        19.80200
O           7.91300        25.21800        20.99700
C           8.43100        23.99800        21.54700
O           7.56300        23.91100        22.68600
C           8.19700        24.20900        23.93900
C           7.83400        25.61800        24.37600
O           8.10000        26.53800        23.30700
H           7.74500        25.99500        22.54600
C           8.38800        25.97900        25.74500
O           7.68600        27.06200        26.37200
H           8.12100        27.54400        27.13300
C           8.55200        21.75800        24.83700
O           7.88300        21.11200        23.74400
H           7.85100        20.11800        23.84800
C           7.97300        23.15300        25.00900
O           8.62600        23.59800        26.20700
C           8.12200        24.84100        26.71700
O           8.95300        25.12400        27.85100
C           8.31900        24.72600        29.07600
C           8.72000        23.35000        29.58100
O           8.33200        22.35500        28.62200
H           8.61000        22.55100        27.68200
C           8.06000        23.04000        30.91400
O           8.58300        21.84400        31.51200
H           8.25100        21.82300        32.45500
C           8.32100        27.11700        29.91900
O           8.58900        27.94200        28.77600
H           8.66000        28.84900        29.19100
C           8.71000        25.67400        30.19800
O           8.04200        25.41400        31.44100
C           8.41300        24.11600        31.92800
O           7.64000        23.95900        33.12600
C           8.08400        24.34300        34.43600
C           7.44800        25.62400        34.95000
O           7.68100        26.67200        33.99900
H           7.47500        26.35800        33.07300
C           7.96100        25.99400        36.33300
O           7.28200        27.18000        36.77000
H           7.75500        27.53000        37.57900
C           8.42100        21.87700        35.21300
O           7.83100        21.19200        34.09900
H           8.11800        20.23500        34.12600
C           7.83000        23.25500        35.46700
O           8.43200        23.67900        36.69900
C           7.66300        24.78200        37.20000
O           8.45800        24.91600        38.38700
C           7.87600        24.67600        39.67700
C           8.49200        23.40500        40.23800
O           8.40400        22.37600        39.24100
H           8.31700        22.76700        38.32500
C           8.06200        22.98000        -0.41500
O           8.71700        21.80200         0.07900
H           8.32900        21.58000         0.97300
C           7.59100        27.09800        40.45100
O           8.05100        27.96300        39.40300
H           7.79400        28.90700        39.60900
C           8.20700        25.73400        -1.34000
O           7.84300        25.33800        -0.00900
C           8.36300        24.12000         0.54400
O           7.54900        23.95800         1.71400
C           3.92200        20.53300         0.14100
C           4.11000        19.13200        42.74500
O           4.03600        18.16800        41.68500
H           4.08200        18.60600        40.78700
C           3.31400        18.90400         1.97500
O           3.50000        17.56100         2.44500
H           3.03300        17.46600         3.32400
C           3.97800        22.88600         0.89500
O           4.24600        23.65100        -0.28900
H           4.06300        24.62600        -0.16200
C           4.47000        21.48000         1.19600
O           3.78400        21.17800         2.42000
C           3.88000        19.87000         3.00300
O           3.03800        19.99700         4.15800
C           3.81500        20.26500         5.33400