# freq=raman b3lyp/6-31+g(2d,p) geom=connectivity

493 10000.com

0 1
C           8.10600         7.94400         2.91500
C           7.52800         9.26500         3.39600
O           7.78500        10.34000         2.48000
H           7.67000         9.97400         1.55700
C           7.88400         9.72100         4.80200
O           7.12600        10.80000         5.36700
H           7.50700        10.97300         6.27600
C           8.69700         5.58700         3.51100
O           8.14200         4.86100         2.40500
H           8.33600         3.88900         2.54400
C           7.97000         6.84500         3.95700
O           8.54200         7.40000         5.15000
C           7.85500         8.51900         5.73100
O           8.67500         8.73500         6.88900
C           8.04400         8.45800         8.14800
C           8.56100         7.10200         8.60100
O           8.42500         6.10400         7.57900
H           8.76300         6.49700         6.72400
C           8.08000         6.72600         9.99300
O           8.66700         5.48100        10.39700
H           8.37700         5.34300        11.34400
C           7.77200        10.84600         8.82600
O           8.27100        11.40700         7.60300
H           7.95100        12.34500         7.74000
C           8.42000         9.51600         9.17200
O           7.85500         9.13800        10.43600
C           8.31800         7.88200        10.95200
O           7.56700         7.70700        12.16200
C           8.23000         8.13500        13.36000
C           7.48100         9.29300        13.99900
O           7.41600        10.27900        12.95900
H           7.16100         9.74000        12.15600
C           8.04100         9.84100        15.30100
O           7.33500        10.99300        15.78500
H           7.68400        11.26000        16.68400
C           8.76000         5.73400        14.06400
O           7.96600         4.99300        13.12600
H           8.12300         4.03000        13.34400
C           8.17200         7.08100        14.45300
O           8.80300         7.54600        15.65500
C           8.11700         8.65700        16.25100
O           8.81000         8.84000        17.49400
C           8.10900         8.40300        18.66700
C           8.62000         7.11500        19.29100
O           8.56800         6.14600        18.23400
H           8.90300         6.55600        17.38600
C           7.87300         6.71200        20.55200
O           8.17700         5.41200        21.07700
H           7.71200         5.33000        21.95900
C           7.40100        10.71200        19.55000
O           7.75100        11.45600        18.37400
H           7.72200        12.42700        18.61400
C           8.16300         9.42000        19.79500
O           7.68000         9.03200        21.08900
C           8.21100         7.78900        21.57000
O           7.47800         7.58100        22.78600
C           8.12100         7.86600        24.03700
C           7.64300         9.24000        24.48000
O           7.76900        10.32900        23.55400
H           7.56200         9.86400        22.69300
C           8.16600         9.59500        25.86200
O           7.75800        10.84700        26.43100
H           8.07400        10.94400        27.37500
C           8.10000         5.45300        24.82700
O           7.70000         4.83100        23.59700
H           7.66300         3.83200        23.63900
C           7.65400         6.88100        25.09600
O           8.22200         7.14400        26.38700
C           7.86900         8.46200        26.83100
O           8.65400         8.66600        28.01400
C           8.02500         8.15700        29.19900
C           8.50100         6.82900        29.76500
O           8.30300         5.69300        28.91100
H           8.71900         6.04500        28.07300
C           7.86700         6.44800        31.09300
O           8.35000         5.21900        31.65400
H           8.00800         5.01500        32.57100
C           7.64000        10.66600        29.89800
O           8.18700        11.47500        28.84700
H           7.88300        12.42200        28.95700
C           8.12700         9.26600        30.23300
O           7.64600         8.86200        31.52300
C           8.01100         7.59200        32.08300
O           7.28700         7.43600        33.31200
C           7.95600         7.81000        34.52500
C           7.35100         9.11100        35.02800
O           7.47900        10.17400        34.07200
H           7.16600         9.90100        33.16200
C           7.90500         9.49600        36.39000
O           7.32900        10.68000        36.96000
H           7.88800        10.94800        37.74400
C           8.22400         5.36800        35.41100
O           7.78500         4.54700        34.31900
H           7.86300         3.57200        34.52900
C           7.69900         6.78000        35.61300
O           8.35100         7.21400        36.81500
C           7.78400         8.38500        37.42100
O           8.66400         8.79100        38.48000
C           8.09100         8.36900        39.72600
C           8.64700         7.03400        40.19300
O           8.00000         6.07300        39.34800
H           8.18200         6.41300        38.42500
C           8.19200         6.66200        -0.47500
O           8.83600         5.46200        -0.02300
H           8.48700         5.11400         0.84700
C           7.98600        10.82200        40.58300
O           8.37200        11.46200        39.35800
H           8.20600        12.44200        39.47100
C           8.44000         9.38600        -1.25800
O           7.79700         9.06600        -0.01600
C           8.29900         7.82500         0.49900
O           7.49800         7.58700         1.66600
C           4.27600         4.33000         0.29600
C           4.64600         2.97500        42.93700
O           4.43400         1.93200        41.97500
H           4.47700         2.35000        41.06800
C           4.07200         2.64100         2.23300
O           4.55400         1.38700         2.73700
H           4.25400         1.18000         3.66800
C           3.98000         6.69700         1.05900
O           4.44800         7.23900        -0.18400
H           4.51400         8.23500        -0.13000
C           4.67800         5.37300         1.32600
O           4.02700         5.09500         2.57400
C           4.33600         3.82000         3.15500
O           3.50000         3.76800         4.32000
C           4.17100         4.09700         5.54500
C           3.82500         5.53200         5.90600
O           4.23200         6.49800         4.92500
H           4.03200         6.10400         4.02800
C           4.26500         5.82100         7.33200
O           3.91700         7.12900         7.80900
H           4.22500         7.20600         8.75800
C           4.13000         1.70900         6.44100
O           3.69000         0.95600         5.30100
H           3.88500        -0.00400         5.50200
C           3.67800         3.14800         6.62600
O           4.15900         3.50400         7.93000
C           3.74500         4.81400         8.34400
O           4.50000         4.85500         9.56400
C           3.82600         4.57800        10.80000
C           4.50200         3.29200        11.24400
O           4.37200         2.25300        10.26300
H           4.40700         2.70300         9.37100
C           3.96500         2.96100        12.62700
O           4.36700         1.65100        13.05400
H           4.29700         1.57900        14.04900
C           3.75100         7.04300        11.62000
O           4.16000         7.76200        10.44700
H           3.91400         8.71800        10.60700
C           4.20900         5.61100        11.84600
O           3.56900         5.24000        13.07500
C           4.27400         4.09900        13.58600
O           3.69800         3.76000        14.85600
C           4.49100         4.09200        16.00500
C           4.18500         5.51100        16.45500
O           4.35900         6.57100        15.50400
H           4.06100         6.12900        14.65900
C           4.52400         5.78600        17.91200
O           4.08400         7.07500        18.36400
H           4.05500         7.09300        19.36300
C           4.34700         1.68900        16.80000
O           3.98100         0.97400        15.61100
H           4.01200        -0.00300        15.82100
C           4.05400         3.14700        17.11300
O           4.50700         3.42200        18.44700
C           4.00200         4.70500        18.84400
O           4.73600         4.65900        20.07600
C           3.96600         4.45500        21.27000
C           4.31300         3.04200        21.71000
O           3.99500         2.08400        20.69100
H           4.21800         2.53500        19.82600
C           3.73100         2.72200        23.07800
O           4.16400         1.46100        23.60800
H           3.80000         1.25500        24.51600
C           3.96100         6.83500        22.12800
O           4.23900         7.57100        20.92800
H           3.99900         8.53800        21.01600
C           4.46900         5.41800        22.33300
O           3.98100         5.11300        23.64800
C           4.12100         3.76300        24.11500
O           3.29100         3.79000        25.28500
C           3.99400         3.87800        26.53300
C           3.89700         5.29800        27.06800
O           4.22800         6.31200        26.10900
H           3.84800         6.07300        25.21500
C           4.59000         5.43900        28.41300
O           4.51600         6.79500        28.87400
H           4.50800         6.63600        29.86100
C           3.93000         1.48200        27.26300
O           3.56400         0.72200        26.10300
H           3.79700        -0.22000        26.34500
C           3.48000         2.90000        27.57700
O           4.03100         3.07100        28.89100
C           3.92300         4.43100        29.33500
O           4.61000         4.36800        30.59400
C           3.89400         4.15300        31.81800
C           4.20800         2.79100        32.41400
O           4.02600         1.78800        31.40300
H           4.35000         2.22100        30.56200
C           3.45600         2.41600        33.68100
O           3.68900         1.06100        34.09000
H           3.50700         0.93800        35.06500
C           3.72000         6.56100        32.65900
O           4.29200         7.33100        31.59200
H           4.04000         8.29200        31.70000
C           4.16300         5.13600        32.94700
O           3.55600         4.78400        34.19800
C           3.85300         3.47200        34.69900
O           3.19700         3.40700        35.97400
C           4.01200         3.66700        37.12600
C           3.70300         5.04900        37.67600
O           3.90400         6.04100        36.65900
H           3.64100         5.62600        35.78800
C           4.44200         5.43200        38.94800
O           3.96800         6.70400        39.41100
H           4.28600         6.88100        40.34300
C           4.24600         1.27700        37.89100
O           3.64000         0.55500        36.80900
H           3.99400        -0.38000        36.84400
C           3.84300         2.69000        38.27800
O           4.53900         2.99800        39.49400
C           4.11900         4.30400        39.91500
O           4.89700         4.55600        41.09500
C           8.12200        16.16000         2.94900
C           7.57300        17.49300         3.43000
O           7.88900        18.50000         2.45700
H           7.61700        18.21700         1.53700
C           8.11300        17.81900         4.81300
O           7.54100        19.04700         5.28600
H           7.83300        19.23900         6.22300
C           8.00000        13.67200         3.62100
O           7.50500        13.04400         2.42900
H           7.55800        12.04700         2.47800
C           7.58600        15.10700         3.90600
O           8.05600        15.39200         5.23100
C           7.72400        16.68800         5.75000
O           8.52300        16.82900         6.93400
C           7.81300        16.57200         8.15400
C           8.20500        15.19900         8.67300
O           7.74500        14.22100         7.72800
H           8.08500        14.58400         6.86100
C           7.72700        14.84100        10.07100
O           8.53200        13.75200        10.54700
H           8.08100        13.30600        11.32000
C           7.73500        18.99400         8.91800
O           8.26500        19.73700         7.81000
H           8.14300        20.72100         7.93600
C           8.11800        17.56400         9.26400
O           7.31800        17.25300        10.41400
C           7.89000        16.05900        10.96600
O           7.14700        15.80500        12.16800
C           7.87600        16.05300        13.37900
C           7.37300        17.36400        13.96000
O           7.77800        18.40400        13.05900
H           7.39900        18.10200        12.18400
C           7.87500        17.78300        15.33200
O           7.46300        19.08400        15.77600
H           7.75300        19.08200        16.73300
C           7.92800        13.63400        14.14800
O           7.22200        12.95500        13.10000
H           7.29700        11.95800        13.14300
C           7.57700        15.07100        14.50000
O           8.06900        15.41900        15.80200
C           7.49900        16.64900        16.27100
O           8.35400        16.89200        17.39700
C           7.84900        16.52900        18.69100
C           8.31600        15.18000        19.21100
O           8.00700        14.16500        18.24300
H           8.00300        14.59700        17.34100
C           7.79900        14.83100        20.59700
O           8.49300        13.68400        21.10700
H           8.01100        13.50700        21.96500
C           7.66300        18.92600        19.41600
O           8.37900        19.58600        18.36200
H           8.17200        20.56300        18.30800
C           8.25400        17.56200        19.73000
O           7.62700        17.26000        20.98600
C           8.05400        16.00300        21.53000
O           7.16300        15.89600        22.65000
C           7.71100        16.08300        23.96300
C           7.22200        17.40100        24.54100
O           7.56900        18.46400        23.64200
H           7.25600        18.16600        22.74000
C           7.83000        17.75400        25.88900
O           7.24700        18.93900        26.45000
H           7.57900        19.03600        27.38900
C           8.04100        13.67200        24.72300
O           7.55000        13.03200        23.53600
H           7.67300        12.04200        23.59700
C           7.38500        15.01600        24.99500
O           7.85400        15.35800        26.30700
C           7.57000        16.63900        26.88900
O           8.49600        16.74400        27.98000
C           7.93800        16.27500        29.21600
C           8.47900        14.93800        29.69500
O           7.87000        13.98300        28.81400
H           7.92300        14.32800        27.87700
C           8.06200        14.50100        31.09100
O           8.73200        13.32300        31.56300
H           8.34700        13.06400        32.44900
C           7.42700        18.68000        30.19900
O           7.68300        19.46800        29.02700
H           7.84200        20.43600        29.22200
C           8.08200        17.31400        30.31600
O           7.57900        16.77500        31.54700
C           8.27800        15.63900        32.07500
O           7.50500        15.66400        33.28400
C           8.21400        15.94000        34.50000
C           7.59200        17.18100        35.12000
O           7.63200        18.35200        34.29000
H           7.47500        18.06000        33.34700
C           8.20700        17.67600        36.41800
O           7.57200        18.84800        36.94900
H           7.98100        19.10400        37.82400
C           8.61400        13.57200        35.26200
O           8.03100        12.83700        34.17600
H           8.11700        11.84500        34.26700
C           8.03500        14.93000        35.62200
O           8.67300        15.33000        36.84300
C           8.10300        16.52200        37.40300
O           8.82600        16.86700        38.59300
C           8.32500        16.50400        39.88800
C           8.88800        15.18800        40.40000
O           8.60600        14.14200        39.45800
H           8.56100        14.52600        38.53600
C           8.33900        14.94300        -0.27500
O           8.97300        13.79100         0.30000
H           8.52600        13.48200         1.13900
C           7.96200        18.96300        40.58100
O           8.29600        19.61700        39.34800
H           8.04700        20.58400        39.40200
C           8.69600        17.64900        -1.24200
O           8.16200        17.36600         0.06000
C           8.53600        16.12000         0.66600
O           7.50500        16.03100         1.66000
C           3.95000        12.46900         0.17900
C           4.14400        11.04900        42.74800
O           3.98400        10.01700        41.76400
H           4.33600        10.30400        40.87300
C           3.51200        10.73400         2.02300
O           4.00400         9.49800         2.56000
H           3.80900         9.36000         3.53100
C           4.00200        14.82700         1.04100
O           4.44800        15.51100        -0.13900
H           4.08400        16.43200         0.00200
C           4.43600        13.39100         1.28500
O           3.73200        13.20300         2.52100
C           3.88400        11.85300         2.98200
O           3.08700        11.77800         4.17300
C           3.73100        12.07600         5.42000
C           3.33900        13.47200         5.87500
O           3.98600        14.48400         5.08900
H           3.85900        14.18100         4.14400
C           3.69900        13.85300         7.30200
O           3.11800        15.06000         7.81600
H           3.37000        15.06800         8.78300
C           3.55200         9.78700         6.12100
O           3.03600         9.12200         4.95900
H           3.49000         8.23200         4.99300
C           3.11300        11.19400         6.49400
O           3.53900        11.46300         7.83700
C           3.30800        12.79400         8.32100
O           4.08900        13.01100         9.50500
C           3.48000        12.72300        10.77200
C           3.89700        11.34400        11.25500
O           3.45000        10.34000        10.33200
H           3.59100        10.71900         9.41700
C           3.40500        10.99800        12.65100
O           3.90800         9.71200        13.04000
H           3.72000         9.60000        14.01600
C           3.65400        15.15500        11.51300
O           4.07400        15.74400        10.27400
H           4.00700        16.73600        10.38200
C           3.97800        13.70200        11.82200
O           3.49200        13.34400        13.12400
C           3.87800        12.05800        13.63200
O           3.02900        11.87500        14.77400
C           3.67400        12.21500        16.01000
C           3.31500        13.59600        16.53400
O           3.66400        14.62100        15.59200
H           3.30200        14.38500        14.69000
C           3.92900        13.87200        17.89600
O           3.39400        15.06400        18.49100
H           3.77000        15.17200        19.41100
C           3.80500         9.73300        16.79600
O           3.68300         9.03000        15.55000
H           4.13500         8.15400        15.71600
C           3.31100        11.15100        17.03300
O           3.93500        11.42700        18.29500
C           3.53600        12.71100        18.79600
O           4.23500        12.80300        20.04600
C           3.60800        12.49700        21.30000
C           3.83700        11.04500        21.68600
O           3.50700        10.04900        20.70700
H           4.04500        10.36600        19.92500
C           3.08600        10.81200        22.98700
O           3.27000         9.44900        23.39600
H           3.15200         9.26100        24.37100
C           3.88200        14.81500        22.06900
O           4.33900        15.56400        20.93400
H           4.19800        16.52500        21.17200
C           4.26900        13.37300        22.35200
O           3.82900        13.05100        23.67900
C           3.83400        11.65400        24.00700
O           3.17600        11.67800        25.28200
C           3.93800        11.89300        26.47900
C           3.47400        13.19700        27.10800
O           3.51600        14.23100        26.11400
H           3.40600        13.84400        25.19900
C           4.15300        13.51900        28.42900
O           3.77500        14.82000        28.90100
H           4.17800        15.02800        29.79200
C           4.12500         9.45600        27.17800
O           3.55800         8.86000        26.00200
H           3.73600         7.88900        26.16500
C           3.65900        10.85300        27.55200
O           4.15500        11.12700        28.87000
C           3.70800        12.40100        29.35800
O           4.48200        12.56300        30.55500
C           3.73600        12.25300        31.74100
C           4.03700        10.86600        32.28500
O           3.59000         9.92600        31.29600
H           4.13400        10.17600        30.49500
C           3.40800        10.47900        33.61300
O           3.95700         9.25200        34.11600
H           3.76800         9.02300        35.07100
C           3.66100        14.58100        32.63300
O           4.44900        15.33000        31.69700
H           4.34200        16.29300        31.94400
C           4.17600        13.17100        32.87000
O           3.54400        12.87700        34.12400
C           3.85200        11.55500        34.59000
O           3.12400        11.52700        35.82700
C           3.91900        11.94200        36.94700
C           3.74000        13.36900        37.44000
O           4.17800        14.33500        36.47400
H           3.76900        13.97900        35.63300
C           4.36800        13.65600        38.79500
O           4.12500        14.95900        39.34400
H           4.36200        14.90000        40.31300
C           4.15700         9.56600        37.86500
O           3.53300         8.70200        36.90400
H           3.56900         7.76400        37.24800
C           3.61000        10.96900        38.07300
O           4.24800        11.26600        39.32300
C           3.88800        12.58500        39.76100
O           4.60700        12.70000        40.99700
C           7.78400        24.43700         2.89000
C           7.06400        25.63400         3.48900
O           6.83800        26.73800         2.60100
H           6.37300        26.39300         1.78600
C           7.75700        25.97100         4.79900
O           7.36700        27.21900         5.39000
H           7.67500        27.23800         6.34100
C           8.10300        21.92200         3.61200
O           7.57700        21.16600         2.51200
H           7.67500        20.19900         2.74300
C           7.54100        23.30900         3.88000
O           8.05800        23.57900         5.19000
C           7.62500        24.81500         5.77700
O           8.45300        25.04700         6.92600
C           7.85200        24.62200         8.15700
C           8.53700        23.34400         8.61400
O           8.17400        22.30300         7.69600
H           8.44500        22.54800         6.76500
C           7.94100        22.89400         9.93800
O           8.70500        21.81600        10.49700
H           8.24100        21.59000        11.35300
C           7.50900        27.07500         8.91700
O           8.10300        27.78500         7.82000
H           7.91000        28.76500         7.87100
C           8.09500        25.70100         9.20000
O           7.36000        25.18700        10.31900
C           8.01600        24.05700        10.91300
O           7.29500        23.81600        12.13100
C           7.75300        24.27000        13.41300
C           7.32100        25.65200        13.87600
O           7.59100        26.69500        12.92800
H           7.68700        26.50000        11.95100
C           7.81500        26.03200        15.26200
O           7.09800        27.16600        15.77100
H           7.51400        27.58800        16.57700
C           7.86800        21.91500        14.29000
O           7.57300        21.13700        13.12100
H           7.86400        20.19300        13.27700
C           7.23700        23.28800        14.45200
O           7.83400        23.58000        15.72400
C           7.51700        24.88900        16.21800
O           8.44900        25.06400        17.29500
C           7.88400        24.75400        18.57700
C           8.30000        23.37300        19.05500
O           8.14200        22.33800        18.07400
H           8.34200        22.73000        17.17700
C           7.58300        23.04200        20.35400
O           7.98600        21.75700        20.85100
H           7.57400        21.55900        21.74000
C           7.77700        27.18100        19.45700
O           8.04200        27.88400        18.23400
H           7.99100        28.85600        18.46300
C           8.23300        25.74700        19.67400
O           7.59800        25.40900        20.91600
C           7.85600        24.09100        21.42000
O           7.08200        23.83800        22.60100
C           7.73100        24.21300        23.82500
C           7.35000        25.58600        24.35200
O           7.99100        26.54400        23.49800
H           7.90900        26.18000        22.57000
C           7.73400        26.00400        25.76200
O           7.07200        27.16000        26.29600
H           7.27900        27.35400        27.25500
C           7.79200        21.79000        24.70900
O           7.40200        21.08300        23.52300
H           7.69400        20.13300        23.63500
C           7.39500        23.23900        24.94300
O           7.87700        23.59500        26.24700
C           7.48900        24.88000        26.75500
O           8.37200        24.99900        27.88100
C           7.79500        24.64400        29.14600
C           8.40900        23.35100        29.65700
O           7.97400        22.26500        28.82600
H           8.45300        22.30900        27.94900
C           7.91000        23.05600        31.06200
O           8.51000        21.93000        31.72000
H           8.13700        21.61700        32.59300
C           7.22200        27.04600        29.96300
O           7.72600        27.72300        28.80200
H           7.58600        28.70800        28.90800
C           7.92700        25.72200        30.20900
O           7.42200        25.40600        31.51400
C           8.08100        24.23100        32.01000
O           7.36800        23.89100        33.20800
C           7.84800        24.24900        34.51200
C           7.20200        25.51400        35.05200
O           7.21400        26.56200        34.07200
H           7.31800        26.15700        33.16300
C           7.94400        25.88900        36.32600
O           7.40800        27.06600        36.94700
H           8.01100        27.31600        37.70500
C           8.28500        21.82600        35.14700
O           7.69500        21.04300        34.09800
H           7.65300        20.09500        34.41200
C           7.66700        23.15400        35.55100
O           8.40200        23.54000        36.72200
C           7.87000        24.73500        37.31300
O           8.61200        25.01800        38.50800
C           7.94800        24.75400        39.75300
C           8.49600        23.45200        40.31500
O           8.43800        22.40900        39.33100
H           8.46100        22.78800        38.40600
C           7.86900        23.03300        -0.43700
O           8.40700        21.81300         0.09200
H           7.94100        21.73100         0.97300
C           7.69900        27.18900        40.43300
O           8.38900        27.75300        39.30800
H           8.20400        28.73200        39.22200
C           8.14800        25.79400        -1.21800
O           7.42000        25.35700        -0.06100
C           8.07900        24.21300         0.49900
O           7.19100        24.12100         1.62200
C           3.80400        20.59500         0.42500
C           4.07100        19.17500        42.95900
O           3.76900        18.15900        41.99200
H           4.03000        18.43800        41.06800
C           3.51300        18.95200         2.28400
O           3.79600        17.63900         2.78900
H           3.51300        17.66400         3.74800
C           3.67900        23.11000         0.97400
O           3.88400        23.82600        -0.25300
H           3.82800        24.81300        -0.10300
C           4.09300        21.71500         1.41200
O           3.52400        21.37100         2.68400
C           3.89700        20.09100         3.21500
O           3.14100        20.00700         4.43200
C           3.86800        20.29500         5.63500