# freq=raman b3lyp/6-31+g(2d,p) geom=connectivity
500 9000.com
500 9000.com
C           9.57800         7.87900         2.60000
0 1
O           9.06200        10.22200         2.34800
H           8.91400         9.90300         1.41200
C           9.85600         9.53200         4.62500
O           9.48700        10.66900         5.41900
H           9.66200        11.48700         4.87000
C           9.60100         5.41100         3.38600
O           9.01900         4.49400         4.32300
H           8.91400         3.57200         3.95100
C           9.27300         6.86400         3.69000
O           9.94800         7.09000         4.93600
C           9.62400         8.34700         5.54800
O          10.25700         8.28300         6.83400
C           9.54300         7.80000         7.98100
C           9.63000         6.30500         8.24500
O           9.18200         5.46800         7.16900
H           9.65400         5.75900         6.33700
C           8.83400         6.15100         9.53100
O           8.50500         4.78700         9.83000
H           7.94900         4.36700         9.11200
C           9.85200        10.06500         8.95900
O           9.99300        10.96600        10.06600
H          10.19800        11.88100         9.71900
C          10.08900         8.57800         9.16800
O           9.49400         8.17600        10.41000
C           9.52700         6.77800        10.73000
O           8.79600         6.81500        11.96500
C           9.26400         7.25400        13.24800
C           9.15300         8.68700        13.74300
O           9.76000         9.58100        12.79900
H           9.36500         9.37100        11.90400
C           9.37200         8.96700        15.22100
O           8.69000        10.15200        15.65600
H           8.88400        11.02700        15.21300
C           9.28000         4.92400        13.81100
O           8.65300         3.88000        14.57100
H           9.03100         3.02100        14.22500
C           8.81100         6.27700        14.32100
O           9.37800         6.54500        15.61100
C           8.96600         7.81800        16.13000
O           9.82300         7.59500        17.25900
C           9.19400         7.27600        18.50900
C           8.80200         5.82900        18.75800
O           7.96800         5.28700        17.72300
H           8.44400         5.51300        16.87300
C           8.18000         5.59800        20.12500
O           7.90300         4.19500        20.24400
H           7.29700         3.95300        19.48600
C           9.77500         9.30000        19.42000
O          10.19300        10.32600        20.33200
H          10.21000        11.17000        19.79600
C          10.01500         7.82000        19.66700
O           9.40400         7.60900        20.94800
C           9.07400         6.23200        21.17800
O           8.32400         6.32600        22.39800
C           9.12100         6.41100        23.58900
C           9.00100         7.77100        24.25800
O           9.40100         8.82500        23.37000
H           9.21500         8.56100        22.42300
C           9.83000         7.82200        25.53100
O           9.50700         9.04600        26.20700
H           9.66100         9.84100        25.62100
C           8.69700         3.96100        24.05300
O           8.71800         2.95000        25.07100
H           8.58800         2.00000        24.78800
C           8.75900         5.36600        24.63100
O           9.81800         5.40700        25.59900
C           9.62500         6.58700        26.39300
O          10.53800         6.50000        27.49700
C           9.78400         6.55300        28.71700
C           9.36100         5.13500        29.06500
O           8.52000         4.36400        28.19400
H           8.92500         4.05900        27.33200
C           8.78300         5.04000        30.46800
O           8.74900         3.69600        30.97000
H           7.92800         3.33500        30.52900
C          11.01300         8.51600        29.33900
O           9.90100         9.39300        29.10700
H           9.57200         9.23800        28.17600
C          10.58500         7.15400        29.86000
O           9.87400         7.06500        31.10300
C           9.66600         5.70500        31.51100
O           8.96300         6.01700        32.72300
C           9.78300         5.97500        33.90000
C           9.54900         7.32900        34.55000
O          10.10300         8.32500        33.67900
H           9.84500         8.04500        32.75400
C          10.08500         7.38200        35.97100
O           9.56700         8.56400        36.59800
H           9.62000         9.32500        35.95100
C          10.15000         3.56900        34.34100
O          10.11800         2.31900        35.04500
H           9.98600         1.40600        34.65800
C           9.47700         4.83200        34.85500
O          10.12000         5.03300        36.12200
C           9.62300         6.19500        36.80100
O          10.47600         6.06600        37.94800
C           9.96000         5.60200        39.20400
C          10.00200         4.10800        39.47800
O           9.30800         3.32700        38.49400
H           9.55000         3.62900        37.57100
C           9.26600         3.86000        40.78500
O           9.00100         2.45400        40.89400
H           8.50000         2.31600        40.04000
C          10.47500         7.85500        40.04500
O          10.81900         8.84500        41.02600
H          10.40700         9.72300        40.78300
C          10.65100         6.37000        40.31900
O           9.97200         5.94900        41.51000
C          10.08600         4.56100        41.85600
O           9.50100         4.35300        43.15000
C           5.03100         4.42100         0.43100
C           9.87400        33.09000        42.62300
O           9.32900        32.17100        41.66500
H           9.74100        32.45000        40.79700
C           4.24300         2.89300         2.09600
O           4.22800         1.47600         2.32000
H           3.98200         1.04900         1.45000
C           5.13100         6.85100         1.23900
O           3.86400         7.16200         0.64100
H           4.04200         7.12800        -0.34200
C           5.38600         5.38600         1.55100
O           4.70200         5.09200         2.77700
C           4.82500         3.73300         3.22200
O           3.84100         3.79800         4.26400
C           4.63300         3.78900         5.46100
C           4.29800         5.07100         6.20400
O           4.33700         6.28700         5.44200
H           3.93100         6.14400         4.54000
C           5.08400         5.32700         7.47900
O           5.01800         6.61000         8.12000
H           4.91600         7.22700         7.34000
C           4.28500         1.31200         5.89700
O           4.05600         0.15600         6.71600
H           3.80400        -0.67300         6.21700
C           4.21300         2.72200         6.45900
O           5.00500         2.91900         7.64000
C           4.73600         4.13400         8.35400
O           5.34300         4.10600         9.65400
C           4.52100         3.55500        10.69400
C           5.20700         2.23800        11.01900
O           4.63500         1.31600        10.08000
H           4.72200         1.54100         9.11000
C           4.59000         1.73800        12.31500
O           5.00100         0.46000        12.82000
H           5.21900         0.04200        11.93800
C           4.27600         5.90800        11.59300
O           3.77100         6.62200        12.73100
H           3.79700         7.60000        12.52700
C           4.65900         4.47000        11.90000
O           3.90600         3.92800        12.99500
C           4.55300         2.73500        13.46200
O           3.74900         2.34500        14.58500
C           4.29300         2.63500        15.88000
C           3.83800         3.83100        16.70100
O           4.16100         4.98100        15.90600
H           3.72200         4.89700        15.01100
C           4.51500         3.93200        18.05900
O           4.13000         5.15500        18.70300
H           4.47200         5.76800        17.99100
C           8.53600        33.28100        16.20800
O           8.15800        32.21300        17.09000
H           8.50400        31.39100        16.63700
C           4.10700         1.45600        16.82100
O           4.78700         1.55100        18.08100
C           4.24900         2.65000        18.83100
O           5.01500         2.78100        20.03800
C           4.33800         2.62900        21.29400
C           4.31700         1.16400        21.69800
O           3.36500         0.45100        20.89500
H           3.83100         0.54700        20.01500
C           7.76500        34.06900        23.06800
O           7.98700        32.69000        23.39800
H           7.65400        32.26500        22.55600
C           5.05900         4.91000        22.04400
O           3.91500         5.64200        21.57900
H           3.94100         5.53200        20.58500
C           5.03600         3.42900        22.38300
O           4.32800         3.29400        23.62300
C           4.34300         1.91300        24.01400
O           3.80900         1.71300        25.33100
C           4.77600         1.91400        26.37200
C           4.42500         3.21300        27.08000
O           4.38400         4.29800        26.14200
H           3.97900         4.03900        25.26500
C           5.03300         3.55900        28.42900
O           4.88100         4.86500        29.00400
H           5.16200         5.58700        28.37200
C           8.75300        32.77600        27.02300
O           8.61400        31.73100        27.99700
H           7.82100        31.13900        27.85100
C           4.35600         1.00800        27.51800
O           4.94000         1.19100        28.81600
C           4.57300         2.46100        29.37500
O           5.41600         2.51000        30.53500
C           4.81000         2.11100        31.77300
C           9.19700        33.80100        31.93800
O           8.63800        32.68500        31.23000
H           8.71600        32.90600        30.25800
C           8.79800        33.49400        33.37200
O           8.95300        32.08500        33.59400
H           8.84000        31.75000        32.65900
C           5.12700         4.32900        32.60200
O           5.29500         5.23400        33.70400
H           4.97100         6.17400        33.59700
C           5.50900         2.88400        32.87900
O           4.90700         2.67100        34.16400
C           5.17200         1.29400        34.46700
O           4.67300         0.92600        35.76100
C           5.40600         1.21100        36.96100
C           4.91300         2.52600        37.54200
O           4.99200         3.70700        36.73100
H           5.13400         3.55300        35.75300
C           5.41900         2.86700        38.93500
O           4.72700         3.97400        39.53200
H           4.78200         4.70300        38.85000
C           9.48400        31.93800        37.52100
O           9.12500        30.79000        38.30300
H           9.01800        30.17700        37.52000
C           5.04600         0.16400        38.00300
O           5.76400         0.44700        39.21300
C           5.24600         1.64100        39.81600
O           6.21800         1.71500        40.86900
C          10.53600        16.12700         1.85000
C          10.64400        17.48800         2.51700
O          11.04700        18.58200         1.68000
H          11.09000        18.14000         0.78400
C          11.24000        17.57800         3.91200
O          10.88100        18.83200         4.51000
H          10.74800        19.53100         3.80800
C          10.44700        13.67500         2.32100
O           9.66300        12.75500         3.09500
H           9.38000        11.96900         2.54600
C          10.07800        15.05900         2.83000
O          10.79900        15.14300         4.06800
C          10.78000        16.40100         4.75800
O          11.60500        16.28700         5.92600
C          10.82400        16.19100         7.12600
C          10.65400        14.71300         7.43900
O           9.70900        14.09100         6.55500
H          10.34800        13.86400         5.82000
C           9.91500        14.67500         8.76600
O           9.58000        13.31700         9.08600
H           8.71100        13.24000         8.59600
C          11.72700        18.36000         7.93300
O          12.73700        19.20500         8.50500
H          13.62700        18.75000         8.52200
C          11.60100        16.87700         8.23800
O          11.26000        16.53900         9.59000
C          10.79700        15.21200         9.88100
O          10.04700        15.47300        11.07600
C          10.83000        15.40300        12.27700
C          10.84100        16.79700        12.88300
O          11.56300        17.73600        12.07200
H          11.23900        17.51900        11.15100
C          11.28500        17.01100        14.32100
O          10.57700        18.15100        14.83100
H          10.79500        19.06600        14.49200
C          10.25800        12.93600        12.88000
O          10.14200        11.90600        13.87200
H           9.98600        11.02700        13.42000
C          10.29800        14.40000        13.28800
O          11.19700        14.56800        14.39300
C          10.96700        15.77100        15.14100
O          11.78700        15.82000        16.31800
C          11.14500        15.49300        17.55800
C          11.02300        14.04100        17.99100
O          10.75600        13.09500        16.94500
H          10.73600        13.45800        16.01400
C          10.06000        13.97500        19.16600
O           9.54700        12.68500        19.52700
H           9.02700        12.45400        18.70500
C          12.44200        17.41700        18.74900
O          11.85400        18.55400        18.09900
H          11.81700        18.41800        17.10900
C          11.71300        16.08700        18.83700
O          10.74000        16.17700        19.88800
C          10.54000        14.82700        20.33000
O           9.83200        14.63100        21.56300
C          10.49100        14.82900        22.82200
C          10.49600        16.22300        23.42600
O          11.07800        17.29100        22.66500
H          10.71500        18.14400        23.04000
C          11.33900        16.25200        24.69100
O          11.05400        17.49600        25.34700
H          11.24200        18.32600        24.82300
C          10.11000        12.36800        23.46900
O           9.82100        11.36000        24.44800
H           9.53800        10.55600        23.92400
C          10.13600        13.82400        23.90600
O          11.19700        13.88600        24.87000
C          11.12000        15.09100        25.64600
O          12.04900        14.68600        26.66200
C          11.37900        14.60400        27.92900
C          11.38600        13.14300        28.34800
O          10.69100        12.41900        27.32200
H          11.06900        12.70500        26.44100
C          10.77500        12.83800        29.70600
O          11.00000        11.47400        30.09100
H          10.37700        10.97900        29.48400
C          12.30100        16.82700        28.89000
O          11.21100        17.75400        29.00300
H          10.67600        17.96700        28.18500
C          12.01500        15.34800        29.09100
O          11.34100        15.07900        30.32900
C          11.32300        13.72800        30.81100
O          10.48100        13.93500        31.95400
C          11.28000        13.98400        33.14500
C          11.30700        15.37100        33.76600
O          12.07900        16.27500        32.96200
H          11.83000        16.20500        31.99600
C          11.96100        15.44600        35.13700
O          12.16800        16.65200        35.88600
H          12.51500        17.32100        35.22900
C          10.36300        11.73600        33.60500
O           9.48900        10.78500        34.23000
H           9.36800        10.04600        33.56700
C          10.60800        13.11600        34.19600
O          11.17700        13.10700        35.51300
C          11.26700        14.43900        36.04000
O          12.17500        14.18400        37.12200
C          11.45000        13.91900        38.33200
C          11.04000        12.52100        38.76600
O          10.09600        11.96800        37.83800
H          10.62300        12.23500        37.03200
C          10.28100        12.48100        40.08300
O           9.96500        11.13700        40.47200
H           9.22200        10.90900        39.84300
C          12.59000        15.95200        39.18600
O          11.63300        16.96500        38.84200
H          11.64200        17.16300        37.86200
C          12.18100        14.52600        39.51800
O          11.43000        14.53300        40.74100
C          11.05000        13.21700        41.16800
O          10.32100        13.18500        42.40400
C           5.97400         9.68900        41.25900
C           6.23300         8.26000        41.70800
O           5.49400         7.30500        40.93400
H           5.58000         7.52800        39.96300
C           5.06700        11.24700         1.41700
O           5.26700         9.97800         2.05600
H           4.76400         9.29800         1.52300
C           6.84900        11.99600        41.75900
O           5.92200        13.09000        41.72800
H           6.30800        13.77600        41.11100
C           5.93500        13.67200         0.60500
O           5.31900        13.62300         1.90000
C           5.68600        12.30100         2.32100
O           4.83700        12.37700         3.47600
C           5.44000        12.24700         4.77200
C           5.41700        13.63300         5.39600
O           5.73600        14.73100         4.52900
H           5.67000        14.44600         3.57200
C           5.89200        13.80300         6.83000
O           5.61900        15.11900         7.33200
H           6.30800        15.70900         6.91200
C           4.92800         9.78600         5.22100
O           4.61800         8.77000         6.18500
H           4.51100         7.90700         5.69200
C           4.76000        11.22800         5.67100
O           5.47900        11.32100         6.91000
C           5.29900        12.59700         7.54100
O           5.98700        12.49500         8.79700
C           5.31800        12.13900        10.01500
C           5.47400        10.65600        10.30900
O           5.02900         9.75200         9.28800
H           5.25800         9.99600         8.34600
C           4.78800        10.19200        11.58400
O           5.19800         8.88500        12.01200
H           5.27800         8.39700        11.14300
C           6.09100        14.22100        11.24700
O           6.38300        14.87800        12.48900
H           6.25200        15.84400        12.26500
C           5.86400        12.71900        11.31000
O           5.02000        12.41200        12.42900
C           5.25300        11.03500        12.76000
O           4.60500        10.90900        14.03400
C           5.36400        10.91100        15.25200
C           5.13000        12.32200        15.76500
O           5.60800        13.33700        14.87000
H           5.21000        13.08900        13.98600
C           5.74700        12.59900        17.12600
O           5.24400        13.79000        17.74900
H           5.56900        14.59700        17.25700
C           4.97800         8.51700        15.81100
O           4.22400         7.44800        16.40200
H           4.19100         6.66700        15.77900
C           4.81800         9.94900        16.29500
O           5.30400        10.19000        17.62400
C           5.28400        11.53900        18.11200
O           6.20900        11.29300        19.18200
C           5.57900        10.96700        20.42900
C           5.39400         9.52900        20.88300
O           4.63200         8.82500        19.89200
H           4.92500         9.21900        19.02000
C           4.58600         9.39400        22.16400
O           4.58200         8.02600        22.60000
H           4.08100         7.47700        21.93200
C           6.14200        13.25000        21.31400
O           6.86400        14.02000        22.28700
H           6.81600        14.98900        22.04300
C           6.19800        11.75300        21.57300
O           5.43800        11.57300        22.77700
C           5.23700        10.23400        23.25100
O           4.59000        10.28200        24.53100
C           5.51200        10.32700        25.63000
C           5.32700        11.77500        26.05700
O           5.74400        12.82700        25.17400
H           5.63200        12.38900        24.28200
C           5.92800        11.94900        27.44200
O           5.43900        13.13800        28.08000
H           5.31500        13.96400        27.53000
C           5.07500         7.85800        26.13100
O           4.72700         6.90400        27.14400
H           4.56400         6.10700        26.56200
C           5.10700         9.28300        26.65800
O           5.88100         9.61000        27.82100
C           5.60600        10.86600        28.45800
O           6.49300        10.81700        29.58500
C           5.75900        10.46300        30.76600
C           5.86000         9.00300        31.17600
O           5.54300         8.16800        30.05200
H           5.74700         8.62400        29.18600
C           4.91900         8.77900        32.34900
O           4.64900         7.37000        32.31400
H           4.68800         7.05000        31.36700
C           5.89800        12.65100        31.67600
O           6.17100        13.61300        32.70500
H           5.45600        14.30800        32.76500
C           6.32200        11.21900        31.95900
O           5.65400        10.86700        33.17900
C           5.65900         9.46500        33.48600
O           5.09300         9.51300        34.80400
C           5.79600         9.55900        36.05500
C           5.83500        10.99200        36.56100
O           6.50200        11.94300        35.71800
H           6.14000        11.77300        34.80200
C           6.68900        10.86700        37.81200
O           6.74000        12.11100        38.52600
H           7.03200        12.86400        37.93600
C           5.00000         7.06200        36.81900
O           4.28300         6.18700        37.70200
H           4.23900         5.30600        37.23100
C           5.32000         8.52700        37.06400
O           6.06800         8.58300        38.28700
C           5.98600         9.92900        38.78000
O           6.68400         9.92100        40.03400
C          12.74000        24.30000         2.11800
C          12.91000        25.67100         2.75200
O          13.63200        26.50200         1.83000
H          12.94200        26.62100         1.11600
C          13.78200        25.69200         3.99700
O          14.11300        27.02600         4.40900
H          14.71900        27.23400         3.64100
C          12.11000        22.04200         2.64800
O          11.61500        21.09800         3.61000
H          10.63100        21.25800         3.68500
C          12.00100        23.47100         3.15500
O          12.66300        23.54200         4.42600
C          13.05000        24.80400         4.99000
O          13.58800        24.54100         6.29400
C          12.83300        24.62300         7.51200
C          12.98700        23.16900         7.92900
O          12.23900        22.41400         6.96500
H          12.58600        22.59600         6.04600
C          12.34800        23.00800         9.29900
O          12.52100        21.65300         9.73800
H          12.12100        20.97800         9.11800
C          13.25700        27.01300         8.02100
O          13.89300        27.99200         8.85600
H          14.05600        28.83900         8.35100
C          13.37700        25.59300         8.54800
O          12.83300        25.40700         9.86400
C          12.89000        24.03500        10.27900
O          12.10900        23.98400        11.48200
C          13.00000        23.83800        12.59700
C          13.18000        25.17900        13.29000
O          13.83300        26.21900        12.54800
H          13.41900        26.43400        11.66300
C          14.09500        24.94700        14.48100
O          14.45400        26.23100        15.01100
H          14.44900        26.77000        14.16800
C          11.94700        21.55200        13.04000
O          11.21900        20.67700        13.91300
H          10.30900        20.97600        14.19800
C          12.37400        22.89500        13.61100
O          13.11800        22.71000        14.82500
C          13.27700        24.02700        15.37300
O          14.00900        23.65700        16.55100
C          13.21100        23.58900        17.74200
C          13.01000        22.12500        18.09600
O          12.16100        21.59300        17.06900
H          12.48000        21.80500        16.14500
C          12.57100        21.67200        19.47900
O          13.10300        20.34900        19.64500
H          12.56900        19.75100        19.04700
C          13.42900        25.84300        18.78800
O          13.36400        26.49700        20.06300
H          12.57300        27.08700        20.22300
C          13.73900        24.36200        18.93900
O          13.17200        23.88700        20.16900
C          13.33300        22.50100        20.50100
O          12.54400        22.47900        21.69900
C          13.36500        22.53300        22.87500
C          13.36400        23.96300        23.39100
O          14.00900        24.91000        22.52700
H          13.86000        24.62100        21.58200
C          13.86200        24.13000        24.81800
O          14.00300        25.51000        25.18400
H          14.57300        25.74500        24.39600
C          12.19700        20.33600        23.40900
O          11.10400        19.66100        24.04700
H          10.35400        20.30800        24.18300
C          12.52100        21.74900        23.86700
O          13.03000        21.81700        25.20700
C          13.08300        23.16500        25.69800
O          13.61500        23.00200        27.02000
C          12.77200        22.80200        28.16400
C          12.78500        21.29900        28.38700
O          11.95800        20.67000        27.39800
H          12.33100        20.89800        26.49900
C          12.48300        20.86800        29.81400
O          13.08700        19.58300        30.01800
H          12.68900        18.99000        29.31800
C          13.58400        25.08200        29.12400
O          13.95400        25.93700        30.21600
H          14.06700        26.86400        29.86000
C          13.33100        23.59800        29.33300
O          12.80700        23.14900        30.59200
C          13.06400        21.77000        30.89100
O          12.31000        21.78200        32.11100
C          12.95500        21.86500        33.39000
C          13.27900        23.25100        33.92300
O          14.08100        23.91600        32.93600
H          13.66000        23.97300        32.03100
C          13.96200        23.22100        35.28100
O          14.31400        24.55900        35.66200
H          14.79000        24.85000        34.83300
C          11.85700        19.85700        34.12300
O          12.88800        18.86000        34.17700
H          13.23400        18.54000        33.29500
C          12.07900        21.31300        34.50200
O          12.62100        21.25600        35.82900
C          13.02500        22.55800        36.27800
O          13.46400        22.27600        37.61500
C          12.61700        22.16100        38.76700
C          12.73400        20.69800        39.16300
O          11.99500        19.96300        38.17700
H          12.41700        20.18000        37.29600
C          12.29900        20.38500        40.58500
O          12.38700        18.99700        40.93900
H          11.87600        18.49500        40.24200
C          13.33500        24.59000        39.31000
O          14.06800        25.52200        40.11900
H          13.88100        26.42500        39.73300
C          13.25000        23.13600        39.74500
O          12.75500        22.71100        41.02300
C          13.02100        21.37700        41.48200
O          12.40900        21.44200        42.77900
C           7.65100        17.74700        40.94500
C           7.64400        16.31900        41.46500
O           6.95700        15.47400        40.53000
H           7.10900        15.94200        39.65900
C           6.46100        19.28100         1.16600
O           6.48700        18.03300         1.87400
H           5.94200        17.37500         1.35400
C           7.86200        23.15800        -0.01100
O           8.50800        23.90700         1.02900
H           8.67600        24.88300         0.88800
C           7.49900        21.72700         0.34900
O           6.57400        21.69700         1.44600
C           6.91700        20.43700         2.04200
O           6.55700        20.47800         3.43100
C           7.43100        19.91700         4.42100
C           8.13900        21.16400         4.92500