# freq=raman b3lyp/6-31+g(2d,p) geom=connectivity
300 7000.com
300 7000.com
C           8.71600         7.73100         2.87600
0 1
O           8.37100        10.02200         2.43900
H           8.35100         9.58900         1.53800
C           8.54200         9.43500         4.75000
O           7.74000        10.51800         5.24200
H           7.99500        10.71300         6.18800
C           9.23000         5.43300         3.49600
O           8.42800         4.63800         2.61000
H           8.70300         3.67900         2.55000
C           8.46500         6.67100         3.93500
O           8.88800         7.02300         5.26000
C           8.32900         8.26900         5.70000
O           8.92900         8.56600         6.97000
C           8.35100         8.25800         8.24600
C           8.90800         6.94200         8.76400
O           8.65200         5.90200         7.80900
H           8.98500         6.32900         6.96900
C           8.37100         6.55600        10.13200
O           8.93400         5.35900        10.68700
H           8.58200         5.20200        11.61000
C           7.87100        10.73300         8.92000
O           8.12300        11.43100         7.69200
H           8.10200        12.41500         7.87100
C           8.57400         9.41600         9.20500
O           8.21900         8.97200        10.52300
C           8.66200         7.72000        11.06700
O           7.89800         7.60600        12.27600
C           8.47700         8.09500        13.49500
C           7.73200         9.33600        13.96000
O           8.00500        10.38900        13.02300
H           7.95000        10.09700        12.06800
C           8.23000         9.81900        15.31200
O           7.58500        11.00900        15.78900
H           7.96500        11.15400        16.70300
C           8.86100         5.67300        14.20700
O           8.37400         4.84900        13.13800
H           8.60300         3.92000        13.42600
C           8.19500         7.00400        14.51500
O           8.63300         7.40500        15.82100
C           7.96400         8.61600        16.20100
O           8.54300         8.93000        17.47600
C           8.06900         8.55700        18.77800
C           8.51200         7.13900        19.09900
O           8.14800         6.12500        18.15200
H           8.54900         6.47600        17.30500
C           8.17300         6.78000        20.53700
O           8.42300         5.46300        21.04800
H           8.20900         5.47200        22.02500
C           8.34300        10.95700        19.61900
O           8.71300        11.55900        18.37000
H           8.49200        12.52400        18.50900
C           8.59300         9.47800        19.86800
O           8.18700         9.08600        21.18700
C           8.69800         7.79300        21.54200
O           7.81500         7.73700        22.67200
C           8.47800         7.93800        23.92800
C           8.06900         9.27300        24.52900
O           8.38300        10.36700        23.65400
H           7.95200        10.01400        22.82400
C           8.63300         9.60300        25.90100
O           8.36800        10.90600        26.44000
H           8.58800        10.96300        27.41400
C           8.29100         5.56500        24.60300
O           7.60400         4.83600        23.57600
H           7.81600         3.86300        23.66700
C           7.98000         6.99600        25.01100
O           8.48100         7.20700        26.33900
C           8.16700         8.51100        26.85100
O           8.88000         8.61400        28.09200
C           8.26900         8.30000        29.35200
C           8.89400         6.99900        29.82900
O           8.74300         5.96500        28.84600
H           8.93100         6.28700        27.91800
C           8.33100         6.58100        31.17700
O           8.96200         5.43900        31.77600
H           8.50700         5.38900        32.66500
C           7.87500        10.72300        29.96500
O           8.51700        11.42100        28.88700
H           8.10600        12.32400        29.01200
C           8.49600         9.39900        30.37900
O           7.83100         8.92500        31.55900
C           8.44300         7.75900        32.13100
O           7.63500         7.51600        33.29200
C           8.19900         7.78300        34.58400
C           7.63200         9.11900        35.03600
O           7.57400        10.18800        34.08000
H           7.34700         9.81400        33.18100
C           8.15300         9.53500        36.40200
O           7.62000        10.78500        36.86300
H           7.93300        11.03800        37.77900
C           8.29100         5.41000        35.42900
O           7.89200         4.70600        34.24400
H           7.75000         3.72100        34.33800
C           7.72200         6.80300        35.64400
O           8.29100         7.09900        36.92800
C           7.93800         8.40800        37.40000
O           8.95600         8.63300        38.38700
C           8.54200         8.19200        39.68800
C           9.05700         6.82900        40.12300
O           8.73000         5.80100        39.17600
H           8.62100         6.11500        38.23300
C           8.40400         6.48300        -0.61000
O           8.77200         5.19900        -0.08600
H           8.18700         5.01900         0.70500
C           8.11200        10.58400        40.44700
O           8.52600        11.30500        39.27700
H           8.52100        12.25500        39.59000
C           8.83000         9.27400        -1.35600
O           8.41300         8.82900        -0.05600
C           8.78900         7.53000         0.42300
O           8.03600         7.45600         1.64200
C           4.07600         4.35900         0.13700
C           4.38300         2.96400        42.72200
O           4.04900         1.83500        41.90000
H           4.20600         2.06100        40.93900
C           3.87000         2.67300         2.06100
O           4.37600         1.43100         2.57100
H           4.09200         1.32600         3.52400
C           4.10000         6.74900         0.89500
O           4.72800         7.39500        -0.22100
H           4.70500         8.38500        -0.36400
C           4.56400         5.33300         1.19700
O           4.07100         5.11200         2.52600
C           4.34200         3.78100         2.98800
O           3.74900         3.59700         4.28200
C           4.52900         3.81600         5.46700
C           4.21800         5.20100         6.00800
O           4.38300         6.26400         5.05800
H           4.18500         5.84400         4.17200
C           4.88600         5.52800         7.33400
O           4.54500         6.85500         7.75900
H           4.62900         7.04100         8.73800
C           4.53100         1.47400         6.27100
O           4.13100         0.84500         5.04500
H           4.05700        -0.14500         5.16200
C           4.07900         2.89100         6.58700
O           4.60900         3.19300         7.88600
C           4.32300         4.52700         8.33000
O           5.10000         4.64200         9.53100
C           4.32600         4.39200        10.71400
C           4.54100         2.97600        11.22300
O           4.12100         1.95700        10.30300
H           4.40700         2.29500         9.40600
C           3.94200         2.76800        12.60500
O           4.15200         1.45300        13.13900
H           3.70900         1.39600        14.03400
C           4.10400         6.81500        11.49200
O           4.43300         7.57100        10.31800
H           4.36800         8.54200        10.54800
C           4.62900         5.42000        11.79200
O           4.05500         5.15700        13.08000
C           4.39900         3.85200        13.56700
O           3.60100         3.69200        14.74900
C           4.21600         3.98800        16.01100
C           3.88300         5.37900        16.52500
O           4.14900         6.42500        15.57900
H           3.85500         6.14500        14.66500
C           4.42400         5.73000        17.90100
O           4.01400         6.97900        18.47600
H           4.30600         6.97800        19.43300
C           4.45400         1.60800        16.93300
O           4.02300         0.87600        15.77600
H           4.44900        -0.02200        15.88700
C           3.81000         2.97800        17.07200
O           4.27500         3.38500        18.36700
C           4.01700         4.68200        18.92400
O           4.91100         4.63700        20.04600
C           4.17400         4.30700        21.23200
C           4.36500         2.86600        21.67500
O           3.80400         2.00400        20.67400
H           4.01600         2.46100        19.81000
C           3.76600         2.57700        23.04100
O           4.12700         1.27300        23.51900
H           3.81000         1.18900        24.46400
C           4.11500         6.73400        22.19300
O           4.40500         7.29700        20.90600
H           4.29500         8.28800        20.97300
C           4.48300         5.26900        22.36700
O           3.82300         4.92800        23.59500
C           4.26000         3.62900        24.02100
O           3.57900         3.62500        25.28400
C           4.39200         3.83000        26.44900
C           3.97400         5.17800        27.01400
O           4.35000         6.18000        26.05800
H           3.99900         5.79300        25.20500
C           4.66000         5.54900        28.31800
O           4.19200         6.81000        28.81800
H           4.24800         6.94300        29.80800
C           4.57300         1.37500        27.15900
O           3.86100         0.70400        26.10900
H           4.18000        -0.23400        26.24200
C           4.19600         2.79600        27.54500
O           4.80500         3.14200        28.79700
C           4.31100         4.40700        29.25900
O           4.84600         4.62000        30.57300
C           4.07600         4.28800        31.73700
C           4.43700         2.92100        32.29600
O           4.47300         1.91900        31.26900
H           4.86900         2.21700        30.40000
C           3.61900         2.61200        33.53900
O           3.79300         1.27500        34.03000
H           3.60000         1.20100        35.00800
C           3.70900         6.65300        32.60800
O           4.22400         7.40100        31.49700
H           3.92800         8.34700        31.62800
C           4.26900         5.26700        32.88400
O           3.64800         4.98500        34.14700
C           3.96700         3.65700        34.58700
O           3.25300         3.63400        35.83100
C           4.01100         3.85200        37.03000
C           3.67100         5.25900        37.49400
O           3.99400         6.24000        36.49700
H           3.78900         5.79700        35.62400
C           4.37300         5.53300        38.81400
O           3.99400         6.77200        39.43100
H           4.12800         6.68200        40.41800
C           3.82700         1.41600        37.77700
O           3.33100         0.77300        36.59400
H           3.60700        -0.18800        36.62100
C           3.48500         2.87000        38.06300
O           4.09000         3.20000        39.32200
C           3.91900         4.52100        39.85400
O           4.78700         4.66200        40.98800
C           7.84300        15.96600         2.95000
C           7.36300        17.33300         3.40900
O           7.90000        18.34500         2.54500
H           7.73000        18.03600         1.61000
C           7.77200        17.77200         4.80500
O           7.12900        18.91800         5.38200
H           7.64500        19.23000         6.18000
C           8.17000        13.57600         3.67800
O           7.94600        12.82600         2.47500
H           8.16900        11.87100         2.66900
C           7.60700        14.93900         4.04500
O           8.29700        15.34700         5.23500
C           7.72300        16.56600         5.72900
O           8.67700        16.80500         6.77400
C           8.33700        16.48800         8.13200
C           8.94900        15.15500         8.52900
O           8.39300        14.12100         7.70400
H           8.35000        14.50300         6.78100
C           8.47800        14.85000         9.94200
O           8.90700        13.62000        10.54300
H           8.58000        13.68500        11.48600
C           8.19500        19.00600         8.76400
O           8.53900        19.75200         7.58700
H           8.46400        20.71900         7.82800
C           8.71700        17.61400         9.07900
O           8.35000        17.28100        10.42600
C           8.77200        15.99400        10.89900
O           8.04500        15.78600        12.11900
C           8.45600        16.23700        13.41700
C           8.00500        17.62600        13.84100
O           8.65400        18.57400        12.98100
H           8.47700        18.25800        12.04900
C           8.37900        17.91300        15.28600
O           7.80700        19.12800        15.79100
H           8.17100        19.25000        16.71500
C           8.23200        13.79300        14.34700
O           8.01600        13.06400        13.13000
H           8.18200        12.08800        13.26600
C           7.90700        15.27400        14.45700
O           8.38100        15.63100        15.76400
C           7.88700        16.87500        16.28100
O           8.70800        16.92400        17.45700
C           8.11300        16.60300        18.72400
C           8.56000        15.23000        19.19800
O           8.18100        14.24200        18.22900
H           8.37000        14.66600        17.34300
C           8.25900        14.85000        20.63900
O           8.95500        13.74900        21.24100
H           8.55200        13.79500        22.15600
C           7.69200        18.91900        19.49600
O           8.14900        19.70100        18.38300
H           7.74300        20.61000        18.47800
C           8.43000        17.62600        19.80300
O           7.92200        17.26600        21.09600
C           8.47700        16.03100        21.57100
O           7.62700        15.86000        22.71400
C           8.05800        16.18800        24.04300
C           7.41500        17.50400        24.44600
O           7.49800        18.52300        23.43900
H           7.57400        18.05100        22.56000
C           7.90600        17.96600        25.80800
O           7.33000        19.15500        26.36800
H           7.93600        19.38600        27.12900
C           8.42600        13.88000        24.95700
O           8.13700        13.06500        23.81200
H           8.39100        12.12100        24.01800
C           7.71400        15.20900        25.15400
O           8.33100        15.60200        26.38800
C           7.78700        16.85200        26.83600
O           8.64400        17.08800        27.96200
C           7.95100        16.64800        29.14000
C           8.39300        15.31000        29.70800
O           8.36800        14.25400        28.73600
H           8.35200        14.62800        27.80900
C           7.84400        14.80200        31.03200
O           8.45800        13.61400        31.55100
H           8.12500        13.30700        32.44200
C           7.80500        19.03100        29.95000
O           8.34300        19.63800        28.76600
H           7.98000        20.56600        28.68700
C           8.17500        17.59900        30.30400
O           7.48500        17.23000        31.50700
C           7.98100        15.97300        31.99100
O           7.30600        15.75700        33.23900
C           7.97000        16.13400        34.45500
C           7.48700        17.45400        35.03300
O           7.62700        18.57000        34.14100
H           7.51500        18.27400        33.19200
C           8.03400        17.80600        36.40700
O           7.54900        19.06300        36.90200
H           7.93400        19.23200        37.80900
C           8.05500        13.61800        35.32100
O           7.67000        13.00000        34.08400
H           7.78600        12.02700        34.28700
C           7.81500        15.10000        35.55700
O           8.33100        15.53700        36.82300
C           7.71200        16.69800        37.39600
O           8.45100        16.85100        38.61600
C           7.79100        16.47800        39.83500
C           8.48600        15.19600        40.26100
O           8.33600        14.20200        39.23600
H           8.45500        14.72600        38.39300
C           8.01100        14.62800        -0.47300
O           8.60900        13.42900         0.04100
H           8.24200        13.14000         0.92500
C           7.42400        18.84500        40.58800
O           7.95300        19.54600        39.45300
H           7.74600        20.52200        39.51400
C           8.02500        17.49500        -1.13000
O           7.44300        17.01600         0.09100
C           8.12500        15.81300         0.47300
O           7.36600        15.55000         1.66200
C           4.12600        12.39900         0.13800
C           4.60500        11.06600        42.75800
O           4.57000        10.04200        41.75300
H           4.67400        10.41300        40.83000
C           3.79900        10.69200         1.93200
O           4.05400         9.38200         2.46100
H           3.75500         9.32000         3.41300
C           3.89600        14.81500         0.99500
O           3.96500        15.36400        -0.32900
H           3.96800        16.32400        -0.05000
C           4.27700        13.37400         1.29400
O           3.61200        12.98400         2.50400
C           4.13900        11.73700         2.98200
O           3.30500        11.58800         4.14100
C           4.00200        11.92800         5.34800
C           3.49000        13.27700         5.82600
O           3.62400        14.39200         4.93200
H           3.34800        14.07400         4.02500
C           4.16400        13.71000         7.11800
O           4.01500        15.07200         7.54300
H           4.65500        15.08000         8.31100
C           4.33400         9.58700         6.19100
O           3.60900         8.87000         5.18000
H           3.93900         7.92900         5.10300
C           3.90100        10.99900         6.54800
O           4.50800        11.50100         7.74700
C           3.92900        12.71700         8.24500
O           4.70400        13.08900         9.39400
C           4.12800        12.73500        10.65900
C           4.51000        11.34900        11.15400
O           4.18200        10.30200        10.23000
H           4.20600        10.73000         9.32600
C           3.98000        10.95600        12.52400
O           4.60000         9.77700        13.05500
H           4.40500         9.46000        13.98300
C           4.20300        15.08800        11.50900
O           4.91200        15.81300        10.49300
H           4.41800        16.68200        10.46700
C           4.65800        13.65700        11.74500
O           3.90400        13.33700        12.92300
C           4.26200        12.07800        13.51000
O           3.31000        11.88500        14.56600
C           3.78300        12.16200        15.89200
C           3.47900        13.51800        16.50800
O           4.00900        14.51600        15.62300
H           3.98700        14.16400        14.68800
C           4.15700        13.68500        17.85800
O           3.60800        14.84600        18.50000
H           4.01500        15.05700        19.38800
C           4.27900         9.72600        16.57300
O           3.89000         8.99000        15.40400
H           4.00800         8.00900        15.55500
C           3.59100        11.04100        16.90000
O           4.28500        11.26400        18.13500
C           3.81700        12.48500        18.72600
O           4.54500        12.55300        19.96100
C           3.98800        12.41000        21.27500
C           4.49700        11.05500        21.73800
O           4.35900        10.06900        20.70500
H           4.49500        10.60900        19.87500
C           3.89300        10.67800        23.08100
O           4.41800         9.45600        23.62100
H           4.12700         9.23500        24.55100
C           4.10100        14.88200        21.95200
O           4.65300        15.60200        20.84000
H           4.51600        16.57300        21.03700
C           4.45400        13.44200        22.28900
O           3.86800        13.12600        23.56000
C           4.14100        11.81000        24.06300
O           3.39400        11.72700        25.28600
C           4.10000        12.14600        26.46300
C           3.59400        13.44800        27.06300
O           3.75800        14.44700        26.04700
H           3.60400        14.07400        25.13200
C           4.23400        13.80000        28.39700
O           3.76500        15.03700        28.95000
H           4.12700        15.26300        29.85500
C           4.22300         9.59200        27.27700
O           3.89200         8.93000        26.04700
H           4.07900         7.95300        26.15500
C           3.85200        11.05100        27.48700
O           4.41700        11.43300        28.74900
C           3.84900        12.63400        29.29300
O           4.52600        12.61900        30.55800
C           3.76500        12.37500        31.75000
C           4.13600        10.98800        32.24800
O           3.78300        10.02800        31.24200
H           4.24600        10.37300        30.42600
C           3.63500        10.62600        33.63600
O           4.48200         9.58800        34.14900
H           4.26800         9.51700        35.12300
C           3.65200        14.76500        32.48200
O           4.34300        15.44300        31.42200
H           4.10500        16.41400        31.45200
C           4.07200        13.35600        32.87000
O           3.36200        12.97600        34.05800
C           3.90500        11.76600        34.60500
O           3.15000        11.60000        35.81400
C           3.95800        12.02000        36.92300
C           3.45000        13.30000        37.56600
O           3.48900        14.42100        36.67100
H           3.09600        14.09700        35.81000
C           4.04500        13.78400        38.87800
O           3.30700        14.88200        39.43400
H           3.46300        14.91100        40.42100
C           4.38400         9.56300        37.81300
O           3.67500         8.82500        36.80600
H           3.79500         7.85500        37.01700
C           3.91000        10.99000        38.04000
O           4.60600        11.43000        39.21500
C           3.94000        12.56700        39.78300
O           4.69000        12.87400        40.96700
C           7.85000        24.08000         2.72700
C           7.31300        25.42800         3.18000
O           7.41000        26.44800         2.17600
H           7.30600        25.97600         1.30100
C           7.80600        25.83900         4.55800
O           7.25800        27.06100         5.07300
H           7.80100        27.20300         5.90100
C           7.88500        21.65400         3.55700
O           7.52400        20.95600         2.35600
H           7.74500        19.99200         2.50400
C           7.44100        23.08700         3.80300
O           8.02500        23.50500         5.04600
C           7.48700        24.73500         5.55300
O           8.11100        25.14300         6.77900
C           7.63900        24.69300         8.05700
C           8.40700        23.47100         8.53400
O           8.16600        22.43200         7.57400
H           8.10700        22.80000         6.64700
C           8.17200        23.06200         9.97800
O           8.88900        21.93500        10.50000
H           8.44700        21.68700        11.36200
C           6.99000        27.10100         8.78200
O           7.53300        27.81000         7.65900
H           7.16800        28.73700         7.74300
C           7.78200        25.83200         9.05300
O           7.52600        25.39000        10.39400
C           8.31600        24.28900        10.86500
O           7.50700        24.02500        12.02000
C           8.06800        24.29400        13.31300
C           7.47900        25.60600        13.80600
O           7.67100        26.68300        12.87600
H           7.66200        26.30600        11.95000
C           8.02000        26.05400        15.15400
O           7.37800        27.19200        15.74600
H           7.89800        27.30000        16.59300
C           8.27600        21.87300        14.14000
O           8.19000        21.07900        12.94800
H           8.72200        20.24600        13.09600
C           7.72200        23.26800        14.38000
O           8.25400        23.63500        15.66200
C           7.71600        24.89500        16.08900
O           8.50900        25.01600        17.27900
C           7.85800        24.72700        18.52500
C           8.21000        23.30500        18.92900
O           7.57300        22.32400        18.09700
H           7.93700        22.56200        17.19600
C           8.06100        22.96600        20.40300
O           8.84900        21.84100        20.81900
H           8.73200        21.56800        21.77300
C           7.87900        27.10700        19.52500
O           8.53300        27.67400        18.38000
H           8.34400        28.65500        18.35500
C           8.36000        25.66800        19.60900
O           7.75600        25.28800        20.85400
C           8.25000        24.07000        21.43000
O           7.32600        23.91800        22.51700
C           8.02400        24.29700        23.71300
C           7.45000        25.60700        24.22700
O           7.58900        26.69100        23.29600
H           7.40700        26.24600        22.41900
C           7.91100        25.95800        25.63300
O           7.46300        27.24000        26.09700
H           7.87900        27.49500        26.96900
C           8.28200        21.86800        24.72600
O           8.25200        21.22600        23.44400
H           7.99100        20.26600        23.54200
C           7.71000        23.27500        24.79300
O           8.06300        23.61500        26.14100
C           7.46600        24.84700        26.57100
O           8.15600        25.04500        27.81400
C           7.65700        24.58500        29.07800
C           8.16100        23.21200        29.49400
O           8.08400        22.20700        28.47200
H           8.26800        22.70500        27.62400
C           7.55900        22.89700        30.85300
O           8.07300        21.69200        31.43700
H           7.77800        21.45400        32.36200
C           7.53200        27.09000        29.70200
O           8.04000        27.89600        28.62900
H           7.97600        28.84000        28.95300
C           7.98000        25.68600        30.07500
O           7.33400        25.28100        31.29100
C           7.81700        24.03900        31.82300
O           6.98000        23.91100        32.98100
C           7.51800        24.24100        34.27000
C           7.01300        25.56300        34.82500
O           7.30000        26.53800        33.81100
H           7.14800        26.19500        32.88500
C           7.61700        25.87100        36.18500
O           6.94500        26.98100        36.79800
H           7.39000        27.30000        37.63500
C           7.90900        21.84600        35.08000
O           7.28700        21.03500        34.07400
H           7.26300        20.06800        34.32900
C           7.18300        23.16500        35.29000
O           7.85400        23.42700        36.53200
C           7.39500        24.66800        37.08700
O           8.16300        24.94600        38.26700
C           7.64000        24.60100        39.55800
C           8.18300        23.25100        39.99700
O           7.92000        22.11300        39.16500
H           8.09200        22.30200        38.19800
C           7.67500        22.89200        -0.67700
O           8.16900        21.66100        -0.13000
H           7.96700        21.60600         0.84800
C           7.51000        27.01200        40.36800
O           7.90700        27.65200        39.14600
H           7.75100        28.63700        39.21900
C           8.09600        25.62600        -1.49000
O           7.68900        25.24900        -0.16700
C           8.04600        23.95600         0.34400
O           7.17900        23.84100         1.48100
C           3.62400        20.51500         0.21600
C           4.09800        19.17600        42.82400
O           3.68600        18.14900        41.91000
H           3.76400        18.42300        40.95200
C           3.52000        18.84300         2.12900
O           3.97000        17.58400         2.64900
H           3.54000        17.44100         3.54100
C           3.73300        23.03100         1.02300
O           4.39800        23.62000        -0.10400
H           4.18000        24.59600        -0.09400
C           4.02800        21.55700         1.24700
O           3.52200        21.16400         2.53100
C           3.92500        19.92000         3.12200
O           3.19200        19.85000         4.35400
C           3.93100        20.18400         5.53800
C           3.62400        21.57800         6.06000