# freq=raman b3lyp/6-31+g(2d,p) geom=connectivity
550 6000.com
550 6000.com
C           9.90900         8.28100         1.96600
0 1
O          11.05600        10.45600         1.83100
H          10.85700        10.26000         0.87100
C          10.89100         9.52600         3.97000
O          11.10700        10.67300         4.80400
H          11.68300        11.34500         4.33700
C           9.53000         5.77300         2.33500
O          10.80600         5.22600         1.97200
H          10.74600         4.22900         1.93700
C           9.44600         7.17900         2.90500
O          10.09300         7.23600         4.18500
C          10.19800         8.50100         4.85400
O          11.00700         8.16700         5.99100
C          10.21800         8.14100         7.18900
C           9.40000         6.89200         7.47400
O           8.27000         6.99400         6.59500
H           8.60700         6.87300         5.66100
C           8.65600         7.02300         8.79300
O           8.18700         5.67500         8.94700
H           7.51100         5.40300         8.26200
C          11.86200         9.61500         8.18400
O          11.26300        10.91500         8.07900
H          11.21600        11.18300         7.11700
C          11.05400         8.35300         8.44000
O          10.32500         8.41100         9.67500
C           9.65700         7.16700         9.92800
O           9.21400         7.46500        11.26000
C          10.16700         7.35700        12.32700
C          10.40600         8.75300        12.87800
O          10.57600         9.77500        11.88500
H          10.05300         9.38700        11.12600
C          11.32600         8.91500        14.07700
O          11.29000        10.29100        14.48400
H          11.68400        10.91600        13.80900
C           8.40100         6.00900        13.73700
O           8.61000         4.59500        13.86100
H           9.17500         4.30100        13.09000
C           9.69700         6.80000        13.66100
O          10.76500         6.67400        14.61100
C          10.73600         8.00600        15.14300
O          11.33600         8.02300        16.44600
C          10.51700         8.06400        17.62400
C           9.77000         6.76200        17.86300
O           8.66400         6.71000        16.95100
H           7.94600         6.05200        17.17900
C           9.03700         6.58000        19.18200
O           8.42600         5.31700        19.48500
H           7.76100         5.52600        20.20100
C          11.55900         9.91600        18.74500
O          10.60300        10.84200        19.28100
H          10.11600        11.32000        18.55000
C          11.32300         8.41900        18.86300
O          10.82500         8.08300        20.16700
C          10.05300         6.87800        20.27300
O           9.37700         7.10900        21.51800
C          10.16600         7.05400        22.71500
C          10.10700         8.40000        23.41900
O          10.91000         9.29700        22.63800
H          10.80400         9.06700        21.67100
C          10.90400         8.58100        24.70100
O          10.69000         9.80200        25.42300
H          10.71800        10.50300        24.71000
C           9.68400         4.65600        23.11700
O           9.18400         3.65200        24.01200
H           9.03800         2.75700        23.58900
C           9.81200         6.02100        23.77300
O          10.60300         6.17400        24.96000
C          10.55800         7.43700        25.64100
O          11.10100         7.24900        26.95600
C          10.30300         7.36600        28.14300
C           9.74200         5.97400        28.38200
O           8.85900         5.46000        27.37400
H           9.53900         5.38300        26.64500
C           9.07000         5.92900        29.74400
O           8.69900         4.59700        30.12900
H           7.81300         4.34800        29.73600
C          11.48000         9.30300        29.16300
O          12.16900         9.80900        30.31500
H          12.21800        10.80000        30.19300
C          11.30100         7.79400        29.20600
O          10.62600         7.69400        30.46900
C          10.16000         6.35900        30.71200
O           9.49800         6.57600        31.96600
C          10.26400         6.61600        33.17900
C          10.36700         8.01600        33.76200
O          10.96300         9.00300        32.90700
H          11.00700         8.72000        31.94900
C          10.98700         7.98300        35.14900
O          10.94200         9.28900        35.74200
H          11.54500         9.94600        35.29000
C           9.42700         4.33600        33.70100
O           8.92800         3.29500        34.55400
H           9.04300         2.39300        34.13800
C           9.51200         5.77100        34.19400
O          10.03600         5.78900        35.53000
C          10.08700         7.13300        36.03000
O          10.58600         7.02500        37.37100
C           9.96800         7.30300        38.63600
C           9.08200         6.13000        39.02200
O           7.77500         6.32800        38.46300
H           7.78600         6.68900        37.53100
C           8.95300         5.73400        40.48400
O           8.58000         4.36200        40.67800
H           7.96500         4.14000        39.92100
C          11.73700         8.81800        39.35300
O          11.16800        10.12200        39.16700
H          10.39700        10.04100        38.53600
C          11.03100         7.51800        39.70100
O          10.40800         7.61600        40.99100
C           9.98400         6.31900        41.43600
O           9.37700         6.81100        42.63900
C           4.33000         4.56000         0.16400
C           4.60700         1.40500        42.29500
O           4.05300         0.60700        41.23800
H           4.52900         0.74100        40.36900
C           3.50500         2.90300         1.83700
O           3.38400         1.49400         2.08200
H           3.56800         1.01700         1.22300
C           5.24400         6.74700         1.10100
O           5.96600         7.50700         2.08000
H           5.61700         8.42900         1.90900
C           5.07300         5.24900         1.29700
O           4.28900         5.07800         2.48700
C           4.32000         3.69000         2.85000
O           3.72000         3.68700         4.15300
C           4.55000         3.71000         5.32400
C           4.83700         5.10500         5.85400
O           5.65500         5.87300         4.95900
H           5.08400         5.93100         4.14000
C           5.46000         5.02100         7.23800
O           5.67600         6.36000         7.70700
H           6.24400         6.76200         6.98900
C           3.45800         1.45500         6.13400
O           2.52200         0.88500         7.06000
H           2.17700        -0.03700         6.88900
C           3.77800         2.92200         6.36900
O           4.50500         3.00200         7.60400
C           4.62500         4.27100         8.26300
O           5.38900         4.06600         9.46100
C           4.51100         3.92100        10.58700
C           4.21800         2.49000        11.00700
O           3.57100         1.72100         9.98300
H           3.89100         2.11900         9.12300
C           3.36600         2.34700        12.25800
O           3.16900         0.96800        12.60400
H           2.67500         0.61100        11.81100
C           5.61200         5.97600        11.68200
O           4.64400         7.01500        11.88500
H           5.13200         7.84400        12.15700
C           5.29200         4.49200        11.75900
O           4.70800         4.26600        13.05000
C           4.23200         2.94600        13.35400
O           3.35900         3.01800        14.49000
C           4.09600         3.21200        15.70700
C           3.82300         4.54500        16.38400
O           4.15000         5.60100        15.47000
H           3.71100         5.46900        14.58100
C           4.75200         4.84600        17.54900
O           4.61900         6.09400        18.24400
H           4.87400         6.83200        17.61800
C           9.76400        33.53800        16.32000
O           9.50100        32.55300        17.33000
H           9.82200        31.67700        16.97100
C           3.63700         2.22900        16.77200
O           4.38300         2.48700        17.97000
C           4.38600         3.78700        18.57600
O           5.34700         3.72700        19.64000
C           4.79700         3.45600        20.93700
C           5.10800         2.04800        21.41700
O           4.88000         1.04600        20.41600
H           4.88300         1.42400        19.49000
C           4.53700         1.66300        22.77200
O           4.86300         0.29000        23.02900
H           5.09000         0.03700        22.08900
C           5.22700         5.84700        21.78600
O           6.46600         6.51000        22.07400
H           6.14000         7.44700        21.94900
C           5.27200         4.35400        22.06800
O           4.49100         4.05600        23.23500
C           4.95900         2.78400        23.70800
O           4.19600         2.44600        24.87500
C           4.84500         2.72100        26.12500
C           4.46700         4.05700        26.74300
O           4.60300         5.14100        25.81300
H           4.18300         5.03600        24.91100
C           5.26800         4.24800        28.02100
O           5.08100         5.52100        28.65700
H           5.23900         6.24000        27.98100
C          10.35900        33.06800        26.78700
O           9.92300        32.03300        27.68000
H          10.03800        31.13700        27.25000
C           4.51100         1.76000        27.25400
O           5.36100         1.91000        28.40000
C           4.88800         3.13400        28.98200
O           5.66100         3.02900        30.18700
C           4.90000         2.99900        31.40300
C           5.09400         1.70100        32.16900
O           4.71100         0.59600        31.33800
H           4.99700         1.01800        30.47800
C           4.28200         1.49100        33.43700
O           4.49200         0.17400        33.96700
H           4.91500        -0.31000        33.20100
C           5.37000         5.38000        31.87300
O           5.63100         6.35800        32.88900
H           5.35600         7.29200        32.65900
C           5.45600         3.97000        32.43300
O           4.78700         3.96700        33.70200
C           4.86400         2.64000        34.24300
O           3.95300         2.68100        35.35100
C           4.77700         2.75400        36.52300
C           4.54800         4.17700        37.00800
O           5.32200         5.10300        36.23200
H           5.00000         4.87400        35.31300
C           4.94200         4.44600        38.45200
O           4.69900         5.74100        39.01900
H           5.58300         6.20600        38.96700
C          10.17800        33.09800        37.39900
O           9.53500        32.19000        38.30600
H           9.78300        31.29500        37.93500
C           4.23400         1.85100        37.61900
O           4.77800         2.05300        38.93100
C           4.47600         3.36900        39.41800
O           5.21300         3.18500        40.63600
C          12.80200        15.56000         2.19500
C          13.23200        16.96200         2.59700
O          13.78200        17.80700         1.57600
H          13.09000        18.08400         0.91000
C          13.97300        16.93000         3.92300
O          14.34200        18.26300         4.30400
H          14.75100        18.67800         3.49100
C          11.13200        13.83700         2.95800
O          11.98900        12.70300         3.15300
H          11.73400        11.93200         2.57000
C          11.85700        15.12700         3.30400
O          12.34400        15.21200         4.65100
C          12.93900        16.48400         4.94500
O          13.68000        16.20800         6.14200
C          12.99900        15.96700         7.38200
C          13.26700        14.53200         7.80400
O          13.00000        13.52600         6.81600
H          12.63600        14.05500         6.04900
C          12.43700        14.11800         9.00800
O          12.58000        12.84000         9.64600
H          12.32300        12.16300         8.95600
C          13.52400        18.42500         8.12900
O          14.23800        19.26700         9.04600
H          14.17000        20.21200         8.72600
C          13.49600        16.93800         8.44200
O          12.79900        16.52300         9.62500
C          12.90100        15.14800        10.02500
O          12.09600        15.33000        11.19900
C          12.79900        15.25300        12.44800
C          13.27700        16.62100        12.90500
O          14.18300        17.28800        12.01500
H          13.86000        17.12800        11.08200
C          13.91500        16.64200        14.28500
O          13.88900        18.01600        14.70000
H          14.08200        18.48500        13.83800
C          11.42400        13.16300        13.07900
O          12.21600        12.09600        12.53800
H          12.23200        12.02500        11.54100
C          12.14800        14.41800        13.53900
O          13.03700        14.39900        14.66600
C          13.11400        15.72900        15.19900
O          13.69000        15.68600        16.51300
C          12.84000        15.47200        17.65000
C          12.60400        14.05400        18.14500
O          11.95000        13.25700        17.14700
H          12.44800        13.41000        16.29300
C          11.98700        13.99300        19.53300
O          12.25600        12.72600        20.15100
H          11.36700        12.26900        20.17400
C          13.82500        17.76000        18.34900
O          12.81600        18.77500        18.25100
H          12.98600        19.68100        17.86300
C          13.37600        16.36600        18.75600
O          12.51800        16.26700        19.90200
C          12.57500        14.97800        20.53000
O          11.77300        14.99500        21.72100
C          12.58100        14.97000        22.90700
C          13.19000        16.25900        23.43500
O          13.85200        17.23900        22.62300
H          13.53300        17.08100        21.68800
C          13.90600        16.15600        24.77200
O          14.20600        17.43000        25.36100
H          14.39700        18.06000        24.60800
C          11.57500        12.88500        23.50600
O          10.56800        12.11200        24.17500
H           9.90000        12.64600        24.69300
C          11.88200        14.26800        24.05900
O          12.58800        14.18600        25.30600
C          12.95300        15.49800        25.75600
O          13.64300        15.31600        27.00100
C          12.80000        15.46500        28.15300
C          12.59100        14.02300        28.58800
O          12.24200        12.99000        27.65500
H          12.51300        13.40600        26.78700
C          11.75100        13.90500        29.85000
O          11.76900        12.52900        30.25700
H          11.86200        12.55600        31.25200
C          13.70200        17.63200        28.93200
O          14.45300        18.53000        29.76200
H          14.47900        19.46400        29.40700
C          13.44600        16.18600        29.32400
O          12.70900        16.05100        30.54800
C          12.56600        14.66300        30.88400
O          12.10300        14.67300        32.24300
C          12.90300        14.40300        33.40300
C          13.56100        15.70800        33.81900
O          14.55900        16.16900        32.89700
H          14.11600        16.65900        32.14600
C          14.20300        15.50300        35.18200
O          14.62700        16.85000        35.43700
H          15.04000        17.09200        34.55900
C          11.16700        12.60500        34.27600
O          11.88300        11.40000        33.96800
H          11.45200        10.74000        33.35300
C          11.89500        13.92900        34.43800
O          12.60200        13.80500        35.68000
C          13.14800        15.03700        36.17200
O          13.59300        14.89100        37.52800
C          12.82100        14.77000        38.73200
C          12.56000        13.32300        39.11700
O          11.57100        12.71800        38.27100
H          11.35700        11.88300        38.77900
C          12.10300        13.05200        40.54100
O          12.25000        11.71300        41.03800
H          11.69100        11.10800        40.47100
C          13.92300        16.81200        39.59300
O          14.87400        17.35600        40.51900
H          15.22000        18.16500        40.04500
C          13.53300        15.38200        39.92700
O          12.72200        15.31900        41.10900
C          12.89700        13.94400        41.48200
O          12.34100        13.80800        42.79800
C           7.33800        10.82000        41.04600
C           6.76700         9.50500        41.55200
O           6.07100         8.77500        40.53100
H           6.58300         8.93300        39.68700
C           5.49800        11.42700         0.97500
O           4.64000        10.41000         1.51200
H           3.76400        10.60100         1.07100
C           8.60300        12.86900        41.81200
O           7.57000        13.82500        41.52900
H           8.05400        14.59000        41.10500
C           7.74500        13.15900         0.40300
O           6.78100        13.36100         1.44600
C           6.43600        12.07400         1.98100
O           5.84900        12.28600         3.27300
C           6.80600        12.29300         4.34200
C           7.04500        13.68500         4.90500
O           7.68600        14.48100         3.89700
H           7.37800        14.50700         2.94600
C           7.66500        13.60000         6.29000
O           7.66800        14.84100         7.01100
H           7.93800        14.70800         7.96500
C           5.80300         9.97600         4.79100
O           6.92100         9.33700         4.15800
H           6.69700         8.39700         3.90100
C           6.13500        11.35700         5.33300
O           6.92600        11.28800         6.52800
C           7.03900        12.55200         7.19600
O           7.88400        12.21400         8.30600
C           7.11500        12.03700         9.50400
C           6.96500        10.58400         9.92800
O           6.13000         9.95800         8.94300
H           6.55700        10.07600         8.04600
C           6.33100        10.33100        11.28500
O           6.47000         8.97100        11.72400
H           7.41300         8.67200        11.57800
C           8.21500        14.08700        10.39500
O           7.48000        15.31600        10.30400
H           8.17400        16.03400        10.26700
C           7.72400        12.68900        10.73500
O           6.90600        12.53900        11.90400
C           6.94800        11.18600        12.38000
O           6.25300        11.16600        13.63600
C           6.99500        11.16000        14.86400
C           7.12000        12.60700        15.31200
O           7.63000        13.44900        14.26700
H           6.94000        13.53800        13.54900
C           7.84100        12.68300        16.64800
O           7.82700        13.96600        17.29100
H           8.69200        14.46000        17.21100
C           6.09100         8.80300        15.52400
O           5.21200         8.04700        16.36900
H           5.07000         7.10400        16.06600
C           6.41300        10.23500        15.91900
O           7.06300        10.38200        17.19000
C           7.03500        11.76900        17.55600
O           7.66200        11.79600        18.84700
C           6.96600        11.72100        20.09900
C           6.75900        10.29400        20.57900
O           5.93800         9.73700        19.54200
H           6.24200         9.80300        18.59200
C           5.98300        10.20400        21.88300
O           5.40900         8.95700        22.30200
H           4.54000         9.19200        22.73800
C           8.28800        13.75600        20.80500
O           7.80600        15.10400        20.69900
H           8.47600        15.83300        20.55800
C           7.70100        12.42000        21.23200
O           6.95600        12.31900        22.45300
C           6.85500        10.95200        22.87800
O           6.18300        10.86700        24.14400
C           7.05100        10.80200        25.28500
C           7.40300        12.11800        25.96000
O           8.01400        13.05500        25.06100
H           7.52600        12.99300        24.19000
C           8.48400        11.90000        27.00600
O           9.10900        13.11700        27.43700
H          10.05700        12.86600        27.63500
C           6.32900         8.40300        25.87100
O           5.80500         7.37200        26.72000
H           5.69400         6.43800        26.37900
C           6.45800         9.85200        26.31300
O           7.36200         9.81600        27.42600
C           7.69700        11.08100        28.01700
O           8.29600        10.72600        29.27100
C           7.49600        10.91000        30.44800
C           6.69200         9.69400        30.87900
O           5.79600         9.28700        29.83400
H           6.37700         9.21500        29.02400
C           5.93800         9.97800        32.16800
O           5.26500         8.75500        32.49900
H           4.91600         8.64800        31.56800
C           8.65400        12.74100        31.40700
O           7.51900        13.60900        31.27800
H           7.18900        13.67100        32.22000
C           8.34700        11.27300        31.65400
O           7.70200        11.29400        32.93500
C           6.88300        10.18700        33.33900
O           6.36000        10.81500        34.51900
C           7.11200        10.45600        35.68700
C           7.60500        11.78100        36.24400
O           8.14000        12.67400        35.25600
H           7.66600        12.36000        34.43300
C           8.36300        11.69200        37.55900
O           8.79000        13.01200        37.92400
H           9.78100        13.14400        37.92700
C           5.73800         8.45000        36.39200
O           6.56300         7.27800        36.32800
H           5.96100         6.49100        36.19200
C           6.25800         9.82700        36.77500
O           6.98100         9.78600        38.01300
C           7.33800        11.08600        38.50400
O           7.97400        10.80700        39.76000
C          14.17500        23.89400         4.07200
C          13.65300        25.23500         4.56300
O          13.70800        26.24000         3.54100
H          14.05400        25.65800         2.80500
C          14.21300        25.61800         5.92300
O          13.44400        26.79400         6.21700
H          13.63500        27.42700         5.46700
C          14.45500        21.56300         4.79100
O          14.13500        20.51400         5.71600
H          14.30200        19.66700         5.21200
C          13.85800        22.90500         5.18200
O          14.30500        23.25300         6.50000
C          13.74200        24.52200         6.86500
O          14.39900        24.60500         8.13800
C          13.98100        24.07300         9.40400
C          14.70300        22.77100         9.71100
O          14.89000        21.87500         8.60600
H          15.15500        22.22900         7.71000
C          14.25300        22.17800        11.03600
O          14.81200        20.94000        11.50000
H          14.70800        20.15400        10.89100
C          14.24900        26.37700        10.32600
O          14.69200        27.28000        11.34900
H          14.14900        28.11900        11.31600
C          14.64200        24.91700        10.48200
O          14.01400        24.51800        11.70900
C          14.63400        23.26400        12.02900
O          13.89600        22.92300        13.21100
C          14.03200        23.62800        14.45400
C          13.45100        24.90300        15.04300
O          13.56700        25.91700        14.03400
H          13.54700        25.48300        13.13300
C          13.90700        25.40700        16.40200
O          13.25400        26.58700        16.89200
H          13.58700        27.35900        16.35000
C          14.25800        21.16700        15.21400
O          14.25700        20.13600        16.21200
H          13.99200        19.29500        15.74200
C          13.81200        22.58400        15.53700
O          14.41800        23.00600        16.76700
C          13.73600        24.16600        17.26400
O          14.26700        24.47300        18.56200
C          13.72600        23.89700        19.76000
C          14.40300        22.54200        19.88900
O          13.66400        21.66700        19.02600
H          13.88000        22.01500        18.11400
C          14.25000        21.83900        21.22800
O          15.11900        20.70900        21.38600
H          15.06700        20.17500        20.54300
C          13.46500        26.18800        20.81100
O          13.85300        27.21600        21.73300
H          13.37800        28.08200        21.57500
C          14.15300        24.83400        20.87800
O          13.92600        24.09700        22.08800
C          14.46300        22.80000        22.38600
O          13.67200        22.59800        23.56600
C          14.06000        23.12100        24.84400
C          13.48700        24.41000        25.41200
O          13.80200        25.41000        24.43200
H          13.71900        25.01100        23.51900
C          14.04500        24.91100        26.73400
O          13.26900        26.07500        27.05700
H          13.24400        26.74400        26.31500
C          14.32500        20.81600        25.55700
O          14.03200        19.81300        26.54000
H          13.97200        18.88700        26.16600
C          14.01900        22.21600        26.06400
O          14.70900        22.71500        27.21900
C          13.99200        23.81900        27.79000
O          14.34500        24.32900        29.08400
C          14.25200        23.57700        30.30300
C          14.72100        22.13700        30.43600
O          14.35500        21.16700        29.44400
H          14.53800        21.65400        28.59000
C          14.21400        21.61300        31.76900
O          14.53000        20.33500        32.34200
H          14.34100        19.65000        31.63900
C          14.74200        25.77800        31.43300
O          15.12200        26.76200        32.40600
H          14.57900        27.58800        32.25400
C          14.88000        24.26600        31.50300
O          14.29300        23.83800        32.74100
C          14.68500        22.47100        32.93200
O          14.01100        22.22700        34.17600
C          14.65600        22.60300        35.40200
C          14.10100        23.89000        35.98800
O          14.61200        24.97100        35.19400
H          14.41600        24.70300        34.25000
C          14.60100        24.18700        37.39300
O          13.82400        25.27700        37.91100
H          13.58300        25.91000        37.17500
C          14.92200        20.07500        36.03400
O          14.93900        19.06000        37.04900
H          14.86400        18.18000        36.58000
C          14.56000        21.49500        36.43800
O          15.32000        21.91400        37.58000
C          14.57800        22.93800        38.25800
O          15.44500        23.17200        39.37700
C          14.97100        22.68500        40.64100
C          15.44900        21.31700        41.10000
O          15.73400        20.40100        40.03200
H          15.53500        20.89300        39.18400
C          14.07500        22.67900         0.41600
O          13.90100        21.29100         0.73300
H          14.13600        20.78100        -0.09500
C          15.16200        25.07900        41.36500
O          13.96100        25.67000        40.84700
H          13.84400        25.66600        39.85400
C          15.00500        25.30800        -0.00900
O          14.37900        24.87600         1.20800
C          14.36500        23.51200         1.65400
O          13.60000        23.38200         2.86200
C           9.75700        18.70100        41.76600
C           9.74400        17.24000        42.18300
O           9.36000        16.17400        41.30300
H           9.83900        16.33200        40.44000
C           8.80400        18.76100         1.80700
O           8.84100        17.37400         2.17400
H           8.66800        16.95300         1.28400
C           9.84500        22.81100         0.64600
O          10.31100        23.85300         1.51600
H          10.78800        24.57000         1.00800
C           9.98100        21.34200         1.01200
O           9.31800        21.12400         2.26700
C           9.19400        19.81100         2.83300
O           8.48300        19.66900         4.07200
C           9.30100        19.77800         5.24600
C           9.41100        21.22300         5.70400