# freq=raman b3lyp/6-31+g(d,p) geom=connectivity

450 8000.com

0 1
O          10.35300         7.88900        21.87400
C          11.13600         7.86900        23.07600
C          11.54600         9.21400        23.65400
O          12.34900         9.84600        22.64600
H          11.91800         9.58800        21.78100
C          12.05600         9.29800        25.08300
O          11.60400        10.52400        25.67400
H          11.60900        11.34300        25.10000
C          10.43400         5.46900        23.63300
O           9.77100         4.73000        24.66900
H           9.91500         3.75000        24.53000
C          10.60700         6.89900        24.12000
O          11.35900         6.88500        25.34200
C          11.41800         8.19800        25.91700
O          12.27000         7.86900        27.02400
C          11.60900         7.97600        28.29300
C          10.90800         6.70400        28.74200
O           9.81200         6.45600        27.84900
H          10.14200         6.12300        26.96500
C          10.34300         6.81600        30.14800
O           9.68200         5.60700        30.55000
H           8.92000         5.48800        29.91400
C          13.42000         9.61000        28.88200
O          12.55000        10.73300        28.68000
H          12.05200        10.54700        27.83300
C          12.63600         8.38900        29.33400
O          12.02900         8.44100        30.63400
C          11.43800         7.22600        31.11900
O          10.72200         7.55000        32.32000

