# freq=raman b3lyp/6-31+g(2d,p) geom=connectivity

320 9655/9655.com

0 1
C           7.87400         8.09500         3.06800
C           7.39100         9.41000         3.65900
O           7.38800        10.46700         2.68800
H           7.06100        10.19200         1.78400
C           8.12500         9.69000         4.96000
O           7.72200        10.92600         5.56800
H           8.10000        10.92200         6.49400
C           8.10500         5.57000         3.72100
O           7.72800         4.81100         2.56300
H           7.93900         3.87900         2.85900
C           7.67600         6.98200         4.08400
O           8.27500         7.30800         5.34700
C           7.87000         8.55300         5.93500
O           8.79000         8.53800         7.03700
C           8.14800         8.27900         8.29400
C           8.69900         6.94700         8.77700
O           8.28500         5.92100         7.86300
H           8.61300         6.11600         6.93900
C           8.26700         6.49600        10.16200
O           8.75900         5.22700        10.61500
H           8.53400         5.12500        11.58400
C           8.36500        10.72800         9.28100
O           8.63100        11.41000         8.04700
H           8.57800        12.38000         8.28300
C           8.65400         9.23700         9.36000
O           8.19200         8.85500        10.66400
C           8.66400         7.58700        11.14300
O           7.93200         7.61400        12.37700
C           8.50100         7.89500        13.66400
C           7.96500         9.27400        14.01100
O           8.59700        10.27800        13.20400
H           8.51700        10.03200        12.23800
C           8.17700         9.53500        15.49300
O           7.69000        10.75500        16.07200
H           8.04000        10.81500        17.00700
C           8.50900         5.43500        14.29500
O           8.06600         4.78900        13.09300
H           8.13500         3.79400        13.15900
C           8.03800         6.83600        14.65100
O           8.53100         7.19000        15.95200
C           7.84700         8.36600        16.40700
O           8.60100         8.64400        17.59600
C           8.05800         8.17000        18.83700
C           8.49600         6.81400        19.36700
O           8.29600         5.77200        18.40100
H           8.51200         6.03800        17.46200
C           8.15300         6.51400        20.81700
O           8.86300         5.36600        21.30400
H           8.56000         5.12000        22.22500
C           7.98900        10.72300        19.57300
O           8.82200        11.43400        18.64500
H           8.68300        12.42100        18.71600
C           8.30100         9.26400        19.86400
O           7.97400         8.93200        21.22100
C           8.49600         7.69000        21.71700
O           7.76900         7.45000        22.93100
C           8.29100         7.90700        24.18700
C           7.62400         9.19700        24.63500
O           7.83000        10.26200        23.69400
H           7.75000         9.83100        22.79500
C           8.16700         9.58800        25.99900
O           7.31800        10.64500        26.46900
H           7.69300        10.99700        27.32600
C           8.80100         5.49200        24.96700
O           8.28000         4.75000        23.85500
H           8.26000         3.78300        24.11000
C           8.12000         6.82300        25.23900
O           8.74100         7.22800        26.46700
C           8.13800         8.42500        26.97800
O           8.89600         8.80800        28.13500
C           8.33300         8.29800        29.35200
C           8.93000         7.01800        29.91500
O           8.67700         5.90000        29.05300
H           9.25700         5.98300        28.24200
C           8.27500         6.65500        31.23800
O           8.96700         5.55800        31.85200
H           8.44700         5.44400        32.69800
C           7.98700        10.84000        29.99100
O           8.50200        11.53700        28.84600
H           8.31100        12.51400        28.94000
C           8.39000         9.42500        30.37000
O           7.63300         9.01600        31.51800
C           8.32300         7.90200        32.10500
O           7.64000         7.58600        33.32600
C           8.16700         8.09500        34.56000
C           7.58200         9.40600        35.06100
O           7.80000        10.43600        34.08600
H           7.35800        10.10100        33.25300
C           8.19300         9.84000        36.38300
O           7.40400        10.88700        36.96700
H           7.94700        11.20100        37.74600
C           8.38100         5.57300        35.38700
O           7.73500         4.98400        34.24900
H           7.61800         4.01400        34.46000
C           8.02600         7.03000        35.63500
O           8.64000         7.40100        36.87800
C           8.17000         8.67000        37.35400
O           8.70900         8.88200        38.66700
C           7.90300         8.62800        39.82600
C           8.38600         7.28600        40.35100
O           8.13700         6.23100        39.41100
H           8.44400         6.55400        38.51600
C           7.79200         6.86800        -0.37200
O           8.49700         5.75200         0.19000
H           8.08800         5.49500         1.06600
C           7.76100        11.12600        40.49000
O           8.28500        11.58500        39.23500
H           8.20900        12.58200        39.21500
C           8.12600         9.70300        -1.18900
O           7.49700         9.30200         0.03600
C           8.02100         8.06400         0.53800
O           7.37900         7.71900         1.77400
C           3.89000         4.27200         0.35200
C           4.17300         2.84200        42.84700
O           3.87300         1.93500        41.77600
H           4.13400         2.28000        40.87400
C           3.67000         2.62200         2.20400
O           3.96800         1.30900         2.70100
H           3.87000         1.44800         3.68600
C           3.97600         6.75200         1.12600
O           4.42100         7.54400         0.01500
H           4.18500         8.50900         0.13300
C           4.34400         5.29900         1.37600
O           3.87500         5.02800         2.70500
C           4.10600         3.69600         3.18700
O           3.23400         3.69200         4.32600
C           3.89000         3.94800         5.57700
C           3.42600         5.29100         6.11500
O           3.60000         6.34200         5.15400
H           3.50500         5.87600         4.27400
C           4.12400         5.60200         7.42900
O           4.01800         6.94700         7.92000
H           4.41200         7.02100         8.83600
C           4.00400         1.43300         6.30300
O           3.65600         0.70800         5.11500
H           3.72700        -0.26300         5.34100
C           3.66000         2.87700         6.63100
O           4.26900         3.19400         7.89100
C           3.88300         4.47200         8.41700
O           4.66600         4.71200         9.59600
C           4.09000         4.32300        10.85100
C           4.21000         2.84700        11.19600
O           3.85400         1.85600        10.22100
H           4.07100         2.02700         9.26000
C           3.66000         2.63300        12.59600
O           3.77500         1.24900        12.95900
H           4.02000         1.21700        13.92800
C           4.19300         6.60400        11.77300
O           4.48800         7.28000        10.54200
H           4.37900         8.26500        10.67900
C           4.67200         5.17400        11.96800
O           4.04600         4.88900        13.22800
C           4.21100         3.53900        13.68500
O           3.42600         3.60700        14.88400
C           4.23200         3.82300        16.05200
C           4.06400         5.26000        16.51600
O           4.55100         6.17900        15.52700
H           4.13900         5.89900        14.66000
C           4.51300         5.59900        17.92800
O           4.35600         6.96600        18.33700
H           4.67600         7.13700        19.26900
C           4.43800         1.50400        16.98600
O           4.18700         0.84700        15.73500
H           4.22700        -0.15100        15.68200
C           3.83800         2.88600        17.18200
O           4.32700         3.23500        18.48600
C           3.90800         4.55700        18.85500
O           4.75500         4.54200        20.01300
C           4.06100         4.31300        21.24800
C           4.46100         2.95600        21.80300
O           4.06700         2.01000        20.79900
H           4.32500         2.39600        19.91300
C           3.84500         2.68000        23.16500
O           4.26000         1.41500        23.70000
H           3.95100         1.43900        24.65000
C           4.17600         6.84600        22.03000
O           4.72000         7.49700        20.87200
H           4.37200         8.43300        20.92200
C           4.44900         5.37000        22.27000
O           3.98300         5.07600        23.59500
C           4.22000         3.77500        24.15100
O           3.45500         3.69900        25.36300
C           4.14300         3.96500        26.59400
C           3.93900         5.40300        27.04200
O           4.07500         6.49600        26.12200
H           4.12300         6.07700        25.21500
C           4.64300         5.55900        28.38100
O           4.41000         6.85300        28.95300
H           4.44800         6.91300        29.95100
C           4.03700         1.47300        27.40300
O           3.76100         0.74500        26.19800
H           3.84300        -0.23800        26.36700
C           3.69800         2.93900        27.62300
O           4.25300         3.21000        28.91800
C           3.98800         4.56200        29.32300
O           4.72100         4.54400        30.55600
C           3.99600         4.34900        31.77900
C           4.42600         2.95200        32.19700
O           3.96800         1.94200        31.28600
H           4.28800         2.16200        30.36500
C           3.94800         2.75400        33.62600
O           4.36500         1.43300        34.00200
H           3.96600         1.36000        34.91600
C           4.19900         6.84600        32.57500
O           4.45200         7.52500        31.33700
H           4.41200         8.50900        31.50900
C           4.49600         5.37100        32.78700
O           4.10300         5.07600        34.13500
C           4.42000         3.77500        34.65000
O           3.66100         3.60400        35.85600
C           4.19300         3.92900        37.14900
C           3.88400         5.36500        37.54000
O           4.36300         6.34700        36.60900
H           4.24500         5.91600        35.71500
C           4.38400         5.64600        38.94800
O           4.00700         6.94700        39.42100
H           4.37200         7.03400        40.34700
C           4.21800         1.51100        37.90200
O           3.75600         0.98100        36.65100
H           3.81300        -0.01100        36.54000
C           3.72900         2.92100        38.18800
O           4.27100         3.27000        39.47000
C           3.93600         4.58400        39.93900
O           4.57700         4.68900        41.21900
C           7.98700        16.16600         3.05400
C           7.47600        17.50600         3.55800
O           7.76800        18.51700         2.58300
H           7.55600        18.13400         1.68400
C           8.02100        17.91500         4.91600
O           7.14700        18.94300         5.40400
H           7.30900        19.26000         6.33900
C           8.37500        13.76600         3.81700
O           7.95700        13.13300         2.59900
H           7.95600        12.16500         2.85000
C           7.77000        15.12300         4.13800
O           8.33500        15.46500         5.41300
C           7.80900        16.72900         5.84300
O           8.52500        17.06100         7.04200
C           7.97400        16.60700         8.28700
C           8.64600        15.31000         8.70800
O           8.36300        14.22000         7.81900
H           8.59300        14.50600         6.88800
C           8.34500        14.82300        10.11600
O           9.14000        13.73300        10.60500
H           8.74700        13.48600        11.49100
C           7.79900        19.07300         9.23000
O           8.19700        19.60900         7.96000
H           8.03200        20.59100         8.05000
C           8.10400        17.59800         9.43200
O           7.46500        17.03300        10.58600
C           8.26700        15.96700        11.11500
O           7.57100        15.67900        12.33600
C           8.24000        16.11200        13.53000
C           7.55100        17.35700        14.06600
O           7.65400        18.44000        13.12900
H           7.37900        18.07400        12.24000
C           8.08800        17.72100        15.44100
O           7.44000        18.93700        15.83900
H           7.78200        19.11500        16.76200
C           8.83900        13.75300        14.19900
O           8.23100        12.90300        13.21500
H           8.49800        11.94900        13.35200
C           7.98100        14.97100        14.50000
O           8.31800        15.32300        15.85000
C           7.86500        16.56700        16.40500
O           8.59900        16.85900        17.60300
C           7.90400        16.62000        18.83500
C           8.46000        15.25300        19.20000
O           8.19200        14.13700        18.33900
H           8.27400        14.40800        17.38000
C           8.09500        14.81100        20.60800
O           8.79100        13.65300        21.09000
H           8.53700        13.40800        22.02600
C           7.83400        19.01500        19.56200
O           8.29500        19.65400        18.36200
H           8.58000        20.56400        18.66300
C           8.38700        17.63200        19.86200
O           7.83100        17.30800        21.14400
C           8.32500        16.01100        21.51200
O           7.53000        15.73800        22.67500
C           8.11800        16.11400        23.92900
C           7.78100        17.48800        24.48400
O           7.95300        18.48100        23.46300
H           7.82900        18.06300        22.56300
C           8.45500        17.76600        25.81800
O           7.80000        18.88800        26.42600
H           8.39700        19.26700        27.13400
C           8.44400        13.72000        24.75300
O           8.05300        12.88700        23.65200
H           8.05800        11.90400        23.83600
C           7.85700        15.09500        25.02700
O           8.68600        15.42700        26.15000
C           8.23300        16.62500        26.79700
O           8.97000        16.84400        28.00900
C           8.32800        16.56700        29.26200
C           8.52000        15.12500        29.70000
O           7.97600        14.16700        28.78000
H           8.22300        14.35200        27.82900
C           8.10000        14.81100        31.12700
O           8.87600        13.74400        31.69100
H           8.38600        13.47700        32.52000
C           8.44200        18.93600        30.02800
O           8.94100        19.66100        28.89500
H           9.12400        20.56400        29.28300
C           8.77900        17.49600        30.37700
O           8.09600        17.27700        31.62000
C           8.33200        15.94800        32.10800
O           7.60000        15.83700        33.33800
C           8.23800        16.04500        34.60600
C           7.68500        17.35500        35.14300
O           7.64600        18.41700        34.17900
H           7.46200        18.13700        33.23700
C           8.33300        17.79800        36.44500
O           7.82600        19.05300        36.92000
H           8.30700        19.24100        37.77700
C           8.33400        13.68800        35.32600
O           7.87300        13.11900        34.09200
H           7.90200        12.12100        34.15400
C           7.81900        15.07000        35.69400
O           8.36800        15.34200        36.99200
C           8.03600        16.67000        37.42100
O           8.82400        16.91400        38.59500
C           8.17200        16.53100        39.81400
C           8.71000        15.21300        40.34800
O           8.27800        14.23200        39.39400
H           8.43900        14.52500        38.45200
C           8.17900        14.88500        -0.32500
O           8.91200        13.77500         0.21300
H           8.41600        13.47200         1.02700
C           8.06700        19.01500        40.48500
O           8.56800        19.80000        39.39300
H           8.17300        20.70100        39.56700
C           8.38100        17.58400        -1.17700
O           7.70600        17.24000         0.04200
C           8.22000        16.04700         0.65400
O           7.40500        15.77200         1.80300
C           3.98500        12.67800         0.04900
C           4.22700        11.31000        42.72900
O           3.79800        10.34000        41.76300
H           3.99300        10.64400        40.83100
C           3.54200        11.06300         2.00600
O           3.64500         9.67900         2.37000
H           3.52000         9.64700         3.36100
C           3.89600        15.08500        42.77000
O           4.38300        15.71000        41.57400
H           3.93800        16.60500        41.57900
C           4.39900        13.70500         1.09100
O           3.87000        13.43700         2.39800
C           4.17100        12.12400         2.89400
O           3.42100        12.11500         4.11700
C           4.12100        12.20300         5.36600
C           3.85800        13.60100         5.90200
O           4.17700        14.59600         4.91900
H           3.76900        14.19600         4.09800
C           4.50900        13.76600         7.26600
O           4.28300        15.13100         7.64700
H           4.43100        15.17900         8.63500
C           4.12800         9.87200         6.13300
O           3.55300         9.16500         5.02500
H           3.48800         8.19700         5.26600
C           3.48100        11.23200         6.34500
O           4.02400        11.47500         7.65100
C           3.91400        12.77400         8.25100
O           4.75900        12.71000         9.40900
C           4.32300        12.43600        10.74900
C           4.56600        11.01800        11.23900
O           4.21200        10.06700        10.22400
H           4.16300        10.61400         9.38900
C           3.98500        10.68700        12.60400
O           4.51900         9.40200        12.95700
H           4.21100         9.13300        13.87000
C           3.99700        14.74900        11.44400
O           4.26900        15.47300        10.23500
H           3.97100        16.41800        10.37100
C           4.65000        13.43700        11.84500
O           4.04000        13.04300        13.08300
C           4.40800        11.75600        13.59800
O           3.56800        11.67300        14.75900
C           4.19200        11.91600        16.02800
C           3.86600        13.31400        16.52900
O           4.03600        14.34800        15.54800
H           3.68500        14.02600        14.66900
C           4.58400        13.58200        17.84200
O           4.20600        14.88900        18.29800
H           4.77600        15.00400        19.11100
C           4.11500         9.60300        16.83500
O           3.72400         8.84800        15.67900
H           3.89400         7.87100        15.80400
C           3.60800        11.01100        17.10000
O           4.21300        11.21500        18.38500
C           4.03600        12.56700        18.83200
O           4.70700        12.82500        20.07500
C           4.00600        12.48400        21.28000
C           4.23000        11.08900        21.84000
O           3.75100        10.11600        20.90000
H           4.07100        10.27200        19.96500
C           3.46400        10.93600        23.14400
O           3.80400         9.65200        23.68600
H           3.53100         9.48400        24.63300
C           4.15800        14.93200        21.92400
O           4.83600        15.60300        20.85200
H           4.52600        16.55300        20.88000
C           4.42700        13.49400        22.33600
O           3.94500        13.29600        23.67300
C           4.03400        11.94000        24.13400
O           3.21300        11.96400        25.31000
C           3.98700        12.14500        26.50500
C           3.72000        13.52400        27.08700
O           4.08200        14.49200        26.09200
H           3.82900        14.25000        25.15500
C           4.39800        13.86000        28.40500
O           3.96700        15.09300        29.00000
H           4.17400        15.10400        29.97900
C           4.12700         9.71900        27.20900
O           3.47100         9.12600        26.07900
H           3.45900         8.13100        26.18000
C           3.70700        11.12700        27.59900
O           4.32700        11.42400        28.85800
C           4.02700        12.73600        29.35800
O           4.73500        12.85100        30.60100
C           3.98500        12.46600        31.76200
C           4.40600        11.09800        32.27300
O           4.23600        10.17200        31.19000
H           4.39600        10.70000        30.35600
C           3.71100        10.61300        33.53500
O           4.35700         9.44800        34.06900
H           4.08500         9.31500        35.02300
C           3.89700        14.86100        32.60300
O           4.66000        15.54800        31.60000
H           4.58500        16.52500        31.79800
C           4.28100        13.42200        32.90600
O           3.50400        13.08800        34.06400
C           3.88800        11.77600        34.49800
O           3.17700        11.60900        35.73400
C           4.02000        12.03700        36.81400
C           3.79800        13.46500        37.28700
O           4.17000        14.45500        36.31600
H           3.82100        14.11900        35.44100
C           4.26100        13.84700        38.68300
O           3.45800        14.98000        39.04200
H           3.84500        15.20300        39.93700
C           4.01200         9.66900        37.81700
O           3.75100         8.91000        36.62700
H           4.05000         7.99100        36.88200
C           3.59600        11.12500        37.95300
O           4.22400        11.50500        39.18600
C           3.79200        12.78600        39.66600
O           4.60100        12.94900        40.83900
C           7.80100        24.30700         3.07800
C           7.39400        25.67400         3.60300
O           7.79100        26.69600         2.67700
H           7.76400        26.35800         1.73600
C           7.92600        25.90300         5.00900
O           7.40800        27.12900         5.54500
H           7.70300        27.27900         6.48800
C           7.65200        21.78700         3.83400
O           7.50400        21.20700         2.52900
H           7.67700        20.23300         2.67000
C           7.32400        23.25300         4.06400
O           7.86100        23.50400         5.37100
C           7.47700        24.77300         5.92100
O           8.37500        24.85300         7.03800
C           7.75800        24.54900         8.29700
C           8.21800        23.21300         8.85800
O           7.98700        22.19100         7.87800
H           8.39800        22.50600         7.02200
C           7.72900        22.92300        10.26800
O           8.52100        21.83300        10.76300
H           8.25800        21.60700        11.70200
C           7.55700        27.01900         9.07200
O           8.02500        27.80800         7.96900
H           8.28000        28.74400         8.21000
C           8.01400        25.60000         9.36600
O           7.28300        25.24600        10.54900
C           7.93700        24.12900        11.16800
O           7.11400        23.95800        12.33100
C           7.78300        24.24400        13.56800
C           7.01800        25.45200        14.08400
O           7.09800        26.51300        13.12000
H           6.77300        26.14100        12.25000
C           7.56100        25.93400        15.41900
O           7.04200        27.11600        16.04600
H           7.44300        27.30600        16.94200
C           8.41400        21.96900        14.42200
O           8.10000        21.03300        13.38100
H           8.09700        20.09500        13.72900
C           7.62400        23.23900        14.69800
O           8.21900        23.71100        15.91600
C           7.42800        24.79700        16.42000
O           8.07200        25.11100        17.66300
C           7.47500        24.64300        18.88100
C           8.29600        23.42100        19.26000
O           8.58300        22.40900        18.28400
H           8.70300        22.98600        17.47700
C           7.95300        22.96000        20.66700
O           8.74400        21.87600        21.17700
H           8.46600        21.69700        22.12100
C           7.43400        27.15600        19.66500
O           8.02500        27.84800        18.55600
H           7.93200        28.82300        18.76000
C           7.80600        25.70400        19.91800
O           7.31000        25.30400        21.20400
C           8.09100        24.16200        21.58700
O           7.37900        23.87400        22.79900
C           8.01600        24.29900        24.01200
C           7.47200        25.64200        24.47100
O           7.77000        26.64800        23.49300
H           7.66400        26.28000        22.56900
C           7.81500        25.99300        25.91000
O           7.26100        27.16800        26.51800
H           7.78700        27.31300        27.35600
C           8.34900        21.89000        24.91100
O           7.91200        21.05300        23.83000
H           8.21700        20.10300        23.77100
C           7.76900        23.28000        25.11300
O           8.27300        23.65400        26.40300
C           7.64400        24.84700        26.89400
O           8.49800        25.17400        28.00000
C           8.00000        24.74600        29.27600
C           8.65100        23.45000        29.73100
O           8.45400        22.38600        28.78800
H           8.71400        22.72500        27.88300
C           8.17700        22.93400        31.07900
O           8.77200        21.73900        31.60700
H           8.42300        21.54600        32.52400
C           7.70400        27.08300        30.14900
O           8.33600        27.74100        29.04100
H           8.14400        28.72300        29.03900
C           8.33300        25.72200        30.39300
O           7.67400        25.29200        31.59300
C           8.23700        24.06900        32.08900
O           7.47500        23.87300        33.28900
C           7.95600        24.43700        34.51800
C           7.36100        25.70500        35.10800
O           7.48300        26.78300        34.16800
H           7.32700        26.57300        33.20300
C           7.99300        26.10900        36.43000
O           7.44800        27.37000        36.84400
H           7.68100        27.45600        37.81300
C           8.03800        21.91500        35.25400
O           7.71300        21.08600        34.12900
H           7.68100        20.12000        34.38700
C           7.67500        23.36000        35.55400
O           8.27000        23.75600        36.79800
C           7.75900        24.95800        37.39500
O           8.64900        25.12000        38.50900
C           8.17500        24.79300        39.82400
C           8.59000        23.44300        40.38700
O           8.49300        22.36900        39.44000
H           8.74600        22.73900        38.54600
C           7.90000        23.17400        -0.34300
O           8.44400        22.02400         0.32100
H           8.13600        21.76300         1.23600
C           7.89800        27.24000        40.53300
O           8.12300        27.82000        39.24000
H           8.05400        28.81200        39.34400
C           8.50300        25.88000        -1.23400
O           8.00400        25.63200         0.08800
C           8.20300        24.31200         0.61700
O           7.31200        24.19000         1.73400
C           3.68900        20.79100        42.01400
C           3.88200        19.35900        42.48600
O           3.46800        18.48900        41.42200
H           3.90800        18.82800        40.59000
C           3.31600        18.94800         1.77700
O           3.84700        17.67600         2.17700
H           3.63300        17.69500         3.15300
C           3.69400        23.18400         0.90400
O           3.84300        23.79300        -0.38600
H           3.67800        24.76100        -0.19700
C           3.93800        21.70200         1.13800
O           3.35400        21.29500         2.38300
C           3.74400        19.98100         2.80800
O           3.13400        19.84000         4.09900
C           3.87800        20.10700         5.29600