# freq=raman b3lyp/6-31+g(d,p) geom=connectivity

350 10000.com

0 1
O           7.57500         7.50400        12.30100
C           8.14200         7.92900        13.54800
C           7.72900         9.31700        14.01100
O           8.21300        10.24500        13.02900
H           7.74800         9.98200        12.18300
C           8.13800         9.62000        15.44300
O           7.45600        10.78100        15.94000
H           7.75400        10.89800        16.88800
C           7.88000         5.47800        14.28700
O           9.01000         5.09800        13.48900
H           9.19600         4.15200        13.75200
C           7.71200         6.95000        14.62800
O           8.46400         7.26900        15.80800
C           7.85000         8.44300        16.36000
O           8.61600         8.68000        17.55000
C           8.10600         8.31500        18.84100
C           8.64800         6.98500        19.33900
O           8.38400         5.90600        18.43000
H           8.23400         6.21700        17.49100
C           8.22100         6.73200        20.77500
O           8.57000         5.45700        21.33400
H           8.42800         5.43900        22.32400
C           8.28400        10.75000        19.68800
O           8.41800        11.31300        18.37500
H           8.33000        12.30900        18.38600
C           8.68200         9.29200        19.85300
O           8.25500         9.01000        21.19300
C           8.74900         7.78000        21.74200
O           7.90700         7.72700        22.90400

