# freq=raman b3lyp/6-31+g(d,p) geom=connectivity

350 6000.com

0 1
O           7.62800         7.47700        12.23200
C           8.25600         7.84500        13.46900
C           7.79200         9.21500        13.93400
O           7.98100        10.24300        12.95100
H           7.92800         9.78500        12.06400
C           8.29600         9.55100        15.32800
O           7.90300        10.83200        15.84200
H           8.44200        11.04700        16.65700
C           8.66800         5.35100        14.30600
O           8.18900         4.54700        13.21800
H           7.93100         3.63200        13.52800
C           8.04900         6.72800        14.47900
O           8.52200         7.12900        15.77300
C           8.06500         8.39000        16.28300
O           8.81400         8.65400        17.47800
C           8.26500         8.31000        18.75900
C           8.61300         6.91400        19.24700
O           8.30800         5.99300        18.19000
H           8.43500         6.41700        17.29300
C           8.04200         6.56900        20.61300
O           8.72200         5.40700        21.11100
H           8.43700         5.32300        22.06500
C           8.35100        10.77200        19.56300
O           9.09800        11.52300        18.59500
H           9.02300        12.49300        18.82800
C           8.70300         9.31400        19.81200
O           7.88100         8.90800        20.91600
C           8.23800         7.70200        21.60700
O           7.48700         7.57000        22.82300

