# freq=raman b3lyp/6-31+g(d,p) geom=connectivity

350 9000.com

0 1
O           7.25500         7.79400        12.20800
C           7.75800         8.13400        13.50800
C           7.15100         9.40900        14.07000
O           7.59500        10.40600        13.13800
H           7.69100         9.91400        12.27300
C           7.73500         9.68900        15.44500
O           7.16500        10.83600        16.09200
H           7.74000        10.98100        16.89700
C           8.28900         5.70000        13.93700
O           7.76400         5.01800        12.79000
H           7.89400         4.03100        12.87900
C           7.57300         6.94500        14.43600
O           8.16400         7.27200        15.70200
C           7.80000         8.48800        16.37300
O           8.67800         8.66600        17.49400
C           8.10300         8.24700        18.74100
C           8.79000         6.95900        19.16400
O           8.82000         5.94300        18.15100
H           8.76900         6.33700        17.23400
C           8.31700         6.54000        20.54600
O           9.07700         5.42400        21.03500
H           9.06100         5.46300        22.03400
C           8.16800        10.76000        19.58700
O           8.40600        11.37500        18.31300
H           8.27500        12.36600        18.34700
C           8.49500         9.28700        19.77700
O           7.93800         8.85900        21.02900
C           8.55200         7.66700        21.53900
O           7.72300         7.37900        22.67400

