# freq=raman b3lyp/6-31+g(2d,p) geom=connectivity

473 10000.com

0 1
C           8.10700         7.83800        23.91000
C           7.55500         9.14800        24.44800
O           7.71500        10.19100        23.47500
H           7.54100         9.74200        22.59900
C           8.18400         9.57300        25.76500
O           7.68500        10.76500        26.38900
H           8.25000        11.04900        27.16300
C           8.35100         5.38700        24.55500
O           7.89100         4.68200        23.39300
H           8.05100         3.70300        23.51400
C           7.85500         6.76600        24.95800
O           8.50000         7.14000        26.18400
C           7.98200         8.38100        26.68600
O           8.68400         8.68000        27.90200
C           8.07100         8.29200        29.14000
C           8.44400         6.89100        29.59400
O           8.24000         5.83700        28.64200
H           8.52500         6.16900        27.74300
C           7.96900         6.51100        30.98700
O           8.49900         5.28500        31.50900
H           8.14500         5.29400        32.44500
C           7.86700        10.74000        29.90100
O           8.54100        11.41100        28.82600
H           8.45600        12.38800        29.02100
C           8.39100         9.34300        30.19000
O           7.87100         8.95000        31.46800
C           8.34800         7.66700        31.89900
O           7.62200         7.44800        33.11700
C           8.22200         7.78100        34.37700

