# freq=raman b3lyp/6-31+g(d,p) geom=connectivity

290 8000.com

0 1
 O                  7.48400000    7.57200000   22.87500000
 C                  8.07100000    7.95100000   24.12800000
 C                  7.57100000    9.31300000   24.57900000
 O                  8.02500000   10.27100000   23.61200000
 H                  7.93300000    9.99100000   22.65600000
 C                  8.03400000    9.75300000   25.95900000
 O                  7.53800000   11.01300000   26.43200000
 H                  7.92800000   11.10700000   27.34800000
 C                  7.93000000    5.45900000   24.94100000
 O                  7.54900000    4.80500000   23.72200000
 H                  7.76500000    3.83600000   23.83700000
 C                  7.76300000    6.94300000   25.22400000
 O                  8.38800000    7.43100000   26.42000000
 C                  7.83000000    8.63400000   26.96700000
 O                  8.70200000    8.85800000   28.08400000
 C                  8.06600000    8.44500000   29.30200000
 C                  8.63600000    7.13500000   29.82100000
 O                  8.45500000    6.16400000   28.78100000
 H                  8.97700000    6.50900000   28.00100000
 C                  8.07900000    6.60700000   31.13300000
 O                  8.81700000    5.48500000   31.63700000
 H                  8.40900000    5.05500000   32.44300000
 C                  7.76500000   10.88500000   30.23400000
 O                  8.40300000   11.55100000   29.13500000
 H                  8.06800000   12.49000000   29.06300000
 C                  8.20000000    9.44300000   30.44100000
 O                  7.48500000    8.93300000   31.57500000
 C                  8.09000000    7.75500000   32.12900000
 O                  7.40700000    7.40200000   33.34000000
 H                  8.17893631    7.38024623   22.24104888
 H                  7.40851628    4.94934657   25.72407605
 H                  8.97055249    5.24887710   25.07515992
 H                  6.71388112    7.05502566   25.40204443
 H                  9.13240797    8.00308249   24.00309788
 H                  6.50111200    9.30099067   24.56923009
 H                  9.09352134    9.87819134   25.87750358
 H                  6.80738106    8.51747163   27.25952630
 H                  8.05054645    7.20264936   34.02389129
 H                  7.97539188   11.43278439   31.12874439
 H                  6.70787967   10.89829642   30.06901575
 H                  9.23596910    9.46878981   30.70746371
 H                  7.02448683    8.30220020   29.10260458
 H                  9.68852768    7.27408433   29.95419549
 H                  7.06533574    6.30321865   30.97456494
 H                  9.10769541    7.98092730   32.37014914

 1 2 1.0 30 1.0
 2 3 1.0 12 1.0 34 1.0
 3 4 1.0 6 1.0 35 1.0
 4 5 1.0
 5
 6 7 1.0 14 1.0 36 1.0
 7 8 1.0
 8
 9 10 1.0 12 1.0 31 1.0 32 1.0
 10 11 1.0
 11
 12 13 1.0 33 1.0
 13 14 1.0
 14 15 1.0 37 1.0
 15 16 1.0
 16 17 1.0 26 1.0 42 1.0
 17 18 1.0 20 1.0 43 1.0
 18 19 1.0
 19
 20 21 1.0 28 1.0 44 1.0
 21 22 1.0
 22
 23 24 1.0 26 1.0 39 1.0 40 1.0
 24 25 1.0
 25
 26 27 1.0 41 1.0
 27 28 1.0
 28 29 1.0 45 1.0
 29 38 1.0
 30
 31
 32
 33
 34
 35
 36
 37
 38
 39
 40
 41
 42
 43
 44
 45

