# freq=raman b3lyp/6-31+g(2d,p) geom=connectivity

500 9224/9224.com

0 1
C           9.64100         7.97400         2.58900
C           9.49600         9.36900         3.17400
O          10.04100        10.35000         2.28100
H          10.66800         9.97900         1.59700
C           9.85300         9.47200         4.64800
O           9.39500        10.77000         5.05400
H           9.56000        11.54200         4.44100
C           9.44100         5.48100         3.10400
O           8.92200         4.56300         4.07800
H           8.97700         3.63800         3.70300
C           9.15400         6.90500         3.55300
O           9.74400         7.12500         4.84300
C           9.25300         8.32900         5.45000
O           9.73600         8.65100         6.76200
C           9.02200         8.21900         7.92900
C           9.29500         6.75100         8.21300
O           8.99300         5.78000         7.20000
H           9.13900         6.26600         6.33900
C           8.69400         6.31800         9.54000
O           8.97500         4.94100         9.83400
H           9.07700         4.57500         8.90900
C           9.46200        10.54900         8.90600
O           9.43800        11.37800        10.07600
H           9.44500        12.31100         9.71700
C           9.69100         9.05000         9.01200
O           9.06600         8.53900        10.19800
C           9.29500         7.19000        10.63000
O           8.54400         7.16200        11.85200
C           9.17000         7.25000        13.14100
C           9.46200         8.63100        13.70500
O          10.19000         9.54500        12.87100
H           9.59600         9.70600        12.08200
C          10.29600         8.48100        14.96700
O          10.61300         9.82700        15.34900
H          11.04100        10.07400        14.48000
C           8.49100         4.86300        13.74300
O           8.23100         3.83200        14.70600
H           8.62400         2.98700        14.34400
C           8.39800         6.34100        14.08400
O           9.07000         6.46800        15.34500
C           9.52500         7.66500        15.99300
O          10.38500         7.32900        17.09100
C           9.69500         6.99500        18.30300
C           9.65700         5.51100        18.62800
O           9.03000         4.61900        17.69500
H           9.47600         4.73600        16.80800
C           8.65600         5.46300        19.77100
O           8.16100         4.13200        19.97900
H           7.83200         3.84200        19.08000
C          10.09700         9.20600        19.33300
O          10.49000        10.04000        20.43300
H          10.30400        11.01400        20.30600
C          10.34500         7.71400        19.47400
O           9.85700         7.21900        20.72900
C           9.53000         5.84000        20.95600
O           8.87900         5.90500        22.23300
C           9.51800         6.17000        23.49000
C           9.03800         7.53500        23.95600
O           9.44700         8.57500        23.05600
H           9.70500         8.12100        22.20300
C           9.54600         7.90800        25.33900
O           9.04700         9.10300        25.95600
H           9.44700         9.91200        25.52400
C           9.48900         3.89000        24.38700
O           9.19600         2.84300        25.32400
H           9.38800         1.98400        24.85000
C           9.05100         5.32000        24.66100
O           9.81600         5.64200        25.83100
C           9.39300         6.87000        26.44000
O          10.30500         6.94900        27.54500
C           9.65900         6.67200        28.79600
C           9.39100         5.20000        29.06400
O           8.28400         4.66000        28.32800
H           8.35800         5.24900        27.52300
C           8.88900         4.82300        30.44800
O           8.46800         3.46700        30.65400
H           8.08700         3.19400        29.77000
C          10.42800         8.80400        29.60700
O          10.95600         9.70100        30.59500
H          10.24200        10.32700        30.90700
C          10.49600         7.31300        29.89200
O           9.81900         7.01600        31.12100
C           9.71800         5.62000        31.44100
O           9.11300         5.48000        32.73500
C           9.92500         5.52600        33.91700
C           9.87300         6.99100        34.32000
O          10.80500         7.68300        33.47600
H          10.91300         7.35900        32.53600
C          10.04000         7.28300        35.80200
O           9.30000         8.47500        36.10000
H           9.75100         9.29600        35.75000
C           9.75400         3.09400        34.36800
O           9.31000         1.98000        35.15500
H           9.21700         1.16100        34.59000
C           9.52000         4.48100        34.94400
O          10.17900         4.80400        36.17700
C           9.77200         6.08000        36.69200
O          10.63700         6.07100        37.83700
C           9.85600         5.76300        39.00100
C          10.13100         4.33300        39.43500
O           9.96700         3.16900        38.61200
H          10.15900         3.46500        37.67600
C           9.18500         4.16000        40.61200
O           8.99400         2.78000        40.95700
H           8.55400         2.39900        40.14400
C          10.18100         8.05800        39.96700
O          10.94500         8.91200        40.83100
H          10.45100         9.78100        40.80900
C          10.36800         6.56600        40.18500
O           9.73700         6.24100        41.43300
C           9.96200         4.85300        41.71800
O           9.46200         4.58800        43.03700
C           4.40600         4.63100         0.53300
C           4.14900         3.21000         1.00600
O           3.39200         2.51200         0.00600
H           3.87500         2.39500        -0.86200
C           3.41700         3.17200         2.33800
O           3.04600         1.80600         2.57400
H           2.73900         1.47800         1.68100
C           5.30500         6.85600         1.31400
O           4.15200         7.70500         1.40600
H           4.24700         8.51100         0.82200
C           5.08700         5.39200         1.66000
O           4.34500         5.31000         2.88500
C           4.24200         3.95500         3.34600
O           3.52900         3.91500         4.59000
C           4.21600         4.02700         5.84500
C           4.02600         5.39800         6.47200
O           4.48800         6.48000         5.65000
H           4.35200         6.05900         4.75300
C           4.47000         5.55200         7.91800
O           4.29800         6.83400         8.53900
H           4.60300         7.59100         7.96100
C           4.01300         1.59200         6.20100
O           3.91600         0.51100         7.14000
H           3.91300        -0.33800         6.61200
C           3.69300         2.95700         6.78900
O           4.23700         3.17100         8.09900
C           3.89600         4.40900         8.73900
O           4.77200         4.17900         9.85200
C           4.08400         3.93700        11.08800
C           4.19400         2.43700        11.30600
O           3.37800         1.83800        10.28800
H           3.77400         2.14900         9.42400
C           3.76000         1.96500        12.68400
O           4.04300         0.56200        12.58500
H           3.49700         0.18500        11.83700
C           4.81600         6.10000        12.00800
O           5.23800         6.86800        13.14500
H           5.23600         7.86700        13.10300
C           4.73600         4.60800        12.28600
O           4.25800         4.12000        13.54900
C           4.50300         2.72400        13.77200
O           4.02200         2.57000        15.11500
C           4.92000         2.89500        16.18700
C           4.39000         4.16700        16.82900
O           4.78200         5.25900        15.98500
H           4.13700         5.25800        15.22000
C           5.14100         4.36400        18.13500
O           4.63600         5.54300        18.78000
H           4.94900         6.37900        18.33000
C           9.18900        33.57300        16.50800
O           9.00700        32.37700        17.27900
H           8.98500        31.55200        16.71400
C           4.82000         1.73500        17.16400
O           5.38400         1.94900        18.46600
C           4.95900         3.18000        19.07000
O           5.67600         3.20600        20.31200
C           4.91800         2.86600        21.48200
C           4.87100         1.38600        21.82700
O           4.55900         0.45800        20.77900
H           5.08500         0.65700        19.95200
C           3.88300         1.07000        22.93800
O           3.66600        -0.34900        22.93200
H           4.05400        -0.65100        22.06100
C           5.36900         5.05200        22.66200
O           5.61800         5.73400        23.90000
H           5.26200         6.66000        23.77600
C           5.30900         3.53900        22.78800
O           4.46900         3.13800        23.88000
C           4.48000         1.73200        24.16900
O           3.66100         1.75500        25.34700
C           4.45000         1.80100        26.54600
C           4.00500         3.04500        27.29600
O           3.77800         4.17700        26.44400
H           3.72000         3.88300        25.49000
C           4.83000         3.30700        28.54600
O           4.26700         4.40200        29.28200
H           4.29900         5.24800        28.74900
C           8.52700        32.49500        26.99100
O           8.32500        31.42000        27.92000
H           8.23700        30.54100        27.45300
C           4.34500         0.70800        27.59700
O           5.05100         0.89700        28.83200
C           4.65400         2.11700        29.47500
O           5.52100         2.01900        30.61400
C           4.70700         1.71000        31.75500
C           9.07900        33.43600        32.09600
O           8.34400        32.57600        31.21300
H           8.59200        32.83800        30.28000
C           8.89600        32.96500        33.52900
O           9.84900        31.94400        33.85800
H           9.79900        31.21200        33.17800
C           5.38700         4.05600        32.47200
O           4.13900         4.76300        32.42700
H           3.75000         4.80700        31.50700
C           5.20800         2.60200        32.87900
O           4.56700         2.18400        34.09300
C           5.02300         0.90100        34.54600
O           4.38400         0.39300        35.72700
C           5.05100         0.92500        36.88100
C           4.60200         2.23700        37.50300
O           4.57000         3.44000        36.72100
H           3.68000         3.35900        36.27300
C           5.20600         2.51900        38.87000
O           4.32200         3.42500        39.54500
H           4.69300         4.32200        39.30500
C           9.34200        31.70900        37.34800
O           9.24000        30.58600        38.23500
H           9.40400        29.77100        37.68000
C           4.94300        -0.12300        37.97700
O           5.77800         0.14800        39.11200
C           5.17500         1.28200        39.75300
O           5.73300         1.41300        41.06800
C          10.61400        16.36500         1.90100
C          10.44500        17.67200         2.65800
O          10.85000        18.80500         1.87600
H          10.61000        18.51200         0.95000
C          11.34200        17.78900         3.88000
O          11.19400        18.98900         4.65300
H          11.66000        19.66100         4.07800
C          10.14000        13.92800         2.25900
O           9.79400        12.81800         3.10000
H           9.77500        11.95300         2.59900
C          10.18200        15.30500         2.90000
O          11.09600        15.31000         4.00700
C          11.05300        16.55500         4.71900
O          11.73000        16.42700         5.97700
C          10.82600        16.45700         7.09100
C          10.51900        15.06200         7.61200
O           9.85700        14.21900         6.65800
H          10.39700        14.33900         5.82500
C           9.82600        15.07200         8.96500
O           9.44800        13.71800         9.25100
H           8.57800        13.49300         8.81200
C          11.80600        18.58900         7.95800
O          12.69400        19.36300         8.77800
H          13.59300        18.92700         8.74300
C          11.69600        17.08700         8.16600
O          11.24700        16.96900         9.52400
C          10.72500        15.72100        10.00400
O           9.95100        15.89900        11.19900
C          10.98700        15.63600        12.15700
C          11.05600        16.96800        12.88600
O          11.95000        17.72000        12.05200
H          11.37700        18.02800        11.29300
C          11.52900        17.03500        14.32900
O          11.56200        18.23000        15.12200
H          11.98200        19.05600        14.74500
C          10.60100        13.22800        12.49400
O           9.72000        12.34500        13.20400
H           9.86600        11.43100        12.82400
C          10.46500        14.59800        13.13700
O          11.19900        14.63500        14.37000
C          10.96300        15.85000        15.09500
O          11.68200        15.36900        16.24000
C          10.85300        15.18900        17.39700
C          10.53200        13.75600        17.79000
O           9.84800        13.13500        16.69100
H          10.34000        13.31500        15.84000
C           9.75700        13.66000        19.09300
O           9.32900        12.34000        19.46000
H           8.87400        11.96900        18.65100
C          12.31600        17.11900        18.37900
O          11.98900        18.46700        18.00900
H          11.80500        18.48500        17.02600
C          11.59900        15.79400        18.57500
O          10.79500        15.78000        19.76400
C          10.59500        14.40400        20.12000
O          10.00100        14.38400        21.42600
C          10.89200        14.43600        22.55000
C          11.09000        15.81400        23.16000
O          11.95100        16.68200        22.40700
H          11.58800        16.78000        21.48000
C          11.58500        15.91700        24.59300
O          11.29400        17.20800        25.14900
H          11.66600        17.97100        24.62000
C          10.48700        12.07400        23.09300
O           9.79000        10.99500        23.73200
H          10.21500        10.19100        23.31800
C          10.35700        13.49500        23.61800
O          10.90700        13.64000        24.93500
C          10.80100        14.96300        25.48000
O          11.56400        14.76500        26.67900
C          10.75500        14.67800        27.86100
C          10.38600        13.26700        28.28900
O           9.22500        13.00000        27.48800
H           9.60700        12.84700        26.57600
C           9.88600        13.17800        29.72200
O           9.15200        12.01200        30.12300
H           8.39600        11.92400        29.47500
C          11.89800        16.72800        28.96200
O          12.64000        17.21600        30.09000
H          13.55100        16.82600        30.22500
C          11.51000        15.26100        29.04400
O          11.04500        15.03100        30.38200
C          11.01000        13.62000        30.64500
O          10.43000        13.74700        31.95100
C          11.22600        13.82600        33.14300
C          11.04300        15.20600        33.75300
O          11.86000        16.03700        32.91700
H          11.34300        15.97900        32.06300
C          11.41900        15.49300        35.19700
O          10.71400        16.71500        35.46100
H          11.36500        17.41300        35.76000
C          10.99300        11.34000        33.78800
O          10.32000        10.26100        34.45300
H          10.54000         9.47600        33.87300
C          10.67600        12.79100        34.11100
O          11.15800        13.02300        35.44300
C          10.99700        14.31100        36.05400
O          11.79900        14.25400        37.24300
C          10.85900        14.18500        38.32500
C          10.63200        12.72100        38.66300
O          10.20400        11.80700        37.64300
H          10.70800        11.92700        36.78800
C          10.14000        12.53100        40.08900
O          10.16200        11.11200        40.30100
H           9.70500        10.63500        39.55000
C          11.71200        16.39900        39.29800
O          12.58500        16.88900        40.32600
H          13.48900        16.46500        40.36200
C          11.60100        14.89100        39.44800
O          11.02000        14.68500        40.74400
C          11.03500        13.28500        41.05900
O          10.42800        13.25100        42.35900
C           5.20200        12.61200         0.21200
C           5.74000         7.87900        42.35000
O           5.00700         7.00300        41.48100
H           5.24900         7.26100        40.54600
C           4.70700        10.93700         2.05100
O           5.17200         9.66900         2.53700
H           4.59100         8.91900         2.22100
C           5.88300        14.93200         1.10200
O           6.53600        15.78800         2.05000
H           6.41100        16.75200         1.81600
C           5.72400        13.44500         1.37100
O           4.86000        13.29400         2.50700
C           5.21300        11.99900         3.01400
O           4.75500        11.80800         4.36000
C           5.67400        12.18900         5.39500
C           5.40700        13.58900         5.92300
O           5.83500        14.52000         4.91800
H           5.12700        14.48500         4.21200
C           6.15000        13.86200         7.22100
O           5.75300        15.16700         7.66600
H           5.22700        15.57600         6.92100
C           5.75000         9.65600         5.97300
O           4.80900         8.86600         6.71300
H           4.69600         7.95200         6.32200
C           5.72400        11.09800         6.45200
O           6.36000        11.39000         7.70500
C           6.05600        12.70200         8.20000
O           6.63000        12.85800         9.50600
C           5.87100        12.42700        10.64500
C           6.25700        10.98200        10.91600
O           5.99500        10.01900         9.88500
H           6.33900        10.41200         9.03300
C           5.58800        10.41500        12.15800
O           6.15200         9.10800        12.33700
H           6.20900         8.51600        11.53300
C           5.62500        14.75300        11.64500
O           5.38200        15.54100        12.82000
H           5.24100        16.45900        12.44900
C           6.06600        13.31500        11.86300
O           5.44800        12.72900        13.01800
C           5.87400        11.38600        13.29100
O           5.12600        11.00800        14.45600
C           5.61300        11.27900        15.77800
C           5.33000        12.58100        16.50900
O           5.87800        13.59600        15.65500
H           5.72600        13.50700        14.67000
C           6.04000        12.69700        17.84800
O           5.52500        13.80200        18.60400
H           6.04300        14.09700        19.40800
C           5.54200         8.85200        16.28500
O           5.12100         7.68400        17.00500
H           5.41500         6.88400        16.48300
C           5.19200        10.23800        16.80200
O           5.82300        10.34900        18.08600
C           5.48400        11.58800        18.72600
O           6.31500        11.36600        19.87500
C           5.68000        11.31200        21.16100
C           5.54600         9.85200        21.56500
O           4.95900         9.08500        20.50400
H           5.04700         9.50500        19.60000
C           4.76100         9.59500        22.84000
O           4.74700         8.16900        23.00400
H           4.56600         7.84000        22.07700
C           6.72300        13.28500        22.13700
O           5.60000        14.08800        21.74700
H           5.98400        15.00800        21.82500
C           6.47700        11.80200        22.35800
O           5.71300        11.68700        23.56700
C           5.53200        10.31200        23.93600
O           4.65700        10.47000        25.06300
C           5.40100        10.32100        26.28100
C           5.39900        11.70500        26.91000
O           5.66600        12.83900        26.07200
H           5.59300        12.61500        25.10000
C           6.13400        11.69100        28.24000
O           6.37300        12.95900        28.86900
H           6.74300        13.62600        28.22300
C           4.70600         7.92400        26.76300
O           5.76800         7.07600        26.30300
H           5.44900         6.30700        25.74700
C           4.72700         9.36400        27.25000
O           5.38600         9.32800        28.52500
C           5.41900        10.64900        29.08400
O           6.26400        10.52700        30.23800
C           5.66600        10.35700        31.53200
C           5.73800         8.87200        31.84600
O           4.92300         8.10000        30.95200
H           5.34500         8.40300        30.09800
C           5.21100         8.54300        33.23300
O           5.50900         7.18800        33.59800
H           4.80400         6.72100        33.06400
C           6.40100        12.62300        32.37100
O           6.88000        13.45900        33.43400
H           6.59600        14.37000        33.13800
C           6.29100        11.13800        32.67600
O           5.47900        10.87100        33.82800
C           5.69300         9.52700        34.28600
O           4.87700         9.45100        35.46300
C           5.65800         9.48500        36.66700
C           5.68800        10.85200        37.33100
O           6.28500        11.93200        36.60000
H           5.73800        12.01800        35.76700
C           6.45300        10.84800        38.64400
O           6.36100        12.05300        39.41800
H           6.46400        12.89600        38.88900
C           5.18700         7.00900        37.12600
O           5.10200         5.84600        37.96300
H           4.86800         5.10400        37.33500
C           5.17000         8.43500        37.65200
O           5.74300         8.38600        38.96600
C           5.89600         9.71400        39.48800
O           6.52800         9.45000        40.74900
C          12.77200        24.70400         2.00500
C          13.02300        26.07900         2.60300
O          13.74000        26.95100         1.71600
H          13.21000        26.88500         0.87000
C          13.85800        26.06200         3.87300
O          13.96800        27.39700         4.38700
H          14.71200        27.94900         4.01100
C          11.81800        22.48400         2.62700
O          11.19600        21.70000         3.65500
H          10.28700        21.41500         3.35300
C          12.20000        23.86500         3.13500
O          13.08500        23.74200         4.25800
C          13.23500        25.05300         4.82300
O          13.66600        24.84000         6.17500
C          12.79000        24.74400         7.30800
C          12.57300        23.27700         7.64000
O          11.58600        22.77600         6.72700
H          12.04700        22.76300         5.83900
C          12.06500        23.12800         9.06500
O          11.55700        21.86700         9.52400
H          12.04100        21.11300         9.07900
C          13.25900        27.06900         7.96900
O          13.66900        28.06800         8.91400
H          13.28200        28.91500         8.54900
C          13.34700        25.62000         8.41800
O          12.75200        25.24200         9.66800
C          12.87300        23.88100        10.10900
O          12.22100        23.87000        11.38800
C          13.25800        23.81900        12.37900
C          13.63000        25.17200        12.96400
O          14.35500        25.95400        12.00300
H          13.71300        26.11000        11.25200
C          14.48300        25.14400        14.22200
O          14.82900        26.43400        14.74600
H          15.54800        26.81400        14.16400
C          12.43300        21.51800        13.16100
O          11.56300        20.80700        14.05400
H          10.62700        21.03600        13.78700
C          12.78400        22.94900        13.53200
O          13.60200        22.97100        14.71100
C          13.68300        24.31300        15.21200
O          14.37600        24.27100        16.46800
C          13.44500        23.93200        17.50700
C          13.32500        22.46900        17.90300
O          12.76000        21.73800        16.80500
H          13.12900        22.13600        15.96600
C          12.85800        22.13200        19.31000
O          13.18300        20.73800        19.41300
H          12.76900        20.15700        18.71200
C          13.62400        26.25200        18.38700
O          14.17600        27.22400        19.28700
H          13.87800        28.11500        18.94500
C          13.83500        24.78100        18.70500
O          13.20500        24.49300        19.96200
C          13.47900        23.12200        20.28300
O          12.90000        22.76900        21.54800
C          13.53800        22.68600        22.83100
C          13.56700        24.05400        23.49300
O          14.21200        25.13300        22.80300
H          13.78300        25.13000        21.89900
C          14.31800        23.93700        24.81000
O          14.21900        25.24200        25.39700
H          14.61900        25.78900        24.66100
C          12.55600        20.37300        23.18600
O          11.64300        19.65300        24.02700
H          10.87600        20.13400        24.45300
C          12.84100        21.73700        23.79200
O          13.43800        21.61400        25.09200
C          13.58900        22.91900        25.67100
O          14.10800        22.78600        27.00200
C          13.16300        22.65200        28.07400
C          13.32800        21.20700        28.51600
O          12.64100        20.48600        27.48300
H          13.00000        20.98800        26.69600
C          12.75300        20.86200        29.88100
O          13.39800        19.59700        30.08900
H          12.85700        18.78900        29.85800
C          13.03300        25.02800        29.07100
O          13.79000        25.98600        29.82500
H          13.36700        26.88800        29.74200
C          13.57200        23.61100        29.18100
O          12.97600        23.22400        30.42700
C          13.24800        21.89100        30.88300
O          12.25600        21.93300        31.92000
C          12.84600        21.86900        33.22600
C          13.02800        23.23400        33.86900
O          13.46400        24.33000        33.05200
H          13.27200        24.13600        32.09100
C          13.76300        23.07800        35.19000
O          14.07700        24.33800        35.80100
H          14.84000        24.79700        35.34500
C          11.65400        19.65800        33.68100
O          12.58000        18.56500        33.77000
H          12.27800        17.72700        33.31600
C          12.12000        20.99500        34.23600
O          12.54200        21.00300        35.60700
C          12.88200        22.28900        36.14500
O          13.75700        22.23300        37.28200
C          13.12200        22.13900        38.56500
C          13.46300        20.75800        39.10100
O          13.13300        19.80700        38.07800
H          13.04300        20.37800        37.26200
C          12.83600        20.42900        40.44500
O          13.29400        19.20900        41.04700
H          12.79200        18.38300        40.79100
C          13.44800        24.50300        39.10100
O          14.05000        25.42700        40.02000
H          13.98000        26.33900        39.61500
C          13.54400        23.09600        39.66700
O          12.73300        22.90500        40.83600
C          13.23300        21.63600        41.27900
O          12.50500        21.62500        42.51600
C           7.65600        17.86600        40.97900
C           7.30400        16.41100        41.23900
O           6.27300        15.96200        40.34700
H           6.64900        16.31000        39.48800
C           6.19300        19.49200         0.91100
O           6.01900        18.07600         1.06200
H           5.41100        17.88700         0.29100
C           7.85300        23.25500         0.19400
O           8.59500        24.21800         0.95700
H           8.69900        25.14200         0.58800
C           7.84000        21.76200         0.47900
O           7.29100        21.40500         1.75600
C           7.03600        20.02600         2.05800
O           6.42500        20.04000         3.35700
C           7.32400        19.92700         4.47000