# freq=raman b3lyp/6-31+g(d,p) geom=connectivity

310 10000.com

0 1
 O                  7.82900000    7.56000000   22.80700000
 C                  8.45200000    8.03700000   24.00900000
 C                  8.16100000    9.42700000   24.55000000
 O                  8.36000000   10.53300000   23.65700000
 H                  8.35700000   10.05200000   22.78000000
 C                  8.49600000    9.87900000   25.96200000
 O                  7.62300000   10.92000000   26.42300000
 H                  8.03400000   11.30600000   27.24900000
 C                  8.51900000    5.60900000   24.87500000
 O                  7.76200000    4.81600000   23.94900000
 H                  7.96900000    3.85900000   24.15200000
 C                  8.10600000    7.05200000   25.11400000
 O                  8.76800000    7.44600000   26.32500000
 C                  8.21600000    8.66800000   26.83600000
 O                  9.07400000    8.83200000   27.97500000
 C                  8.45600000    8.34300000   29.17400000
 C                  8.93400000    6.99800000   29.69500000
 O                  8.88300000    5.91200000   28.75800000
 H                  9.01800000    6.39600000   27.89300000
 C                  8.21700000    6.52500000   30.94900000
 O                  8.64800000    5.27200000   31.50100000
 H                  8.27600000    5.13300000   32.41900000
 C                  8.11900000   10.75800000   30.10100000
 O                  8.54500000   11.56300000   28.99200000
 H                  8.53800000   12.53800000   29.21300000
 C                  8.70700000    9.36600000   30.27000000
 O                  8.06800000    8.88700000   31.46200000
 C                  8.47100000    7.61100000   31.98100000
 O                  7.75200000    7.44400000   33.21200000
 H                  8.37505643    7.34581953   33.93571353
 H                  9.51869003    7.64177918   32.19617028
 H                  7.16702277    6.47309726   30.74961614
 H                  9.96291265    7.12553469   29.95952534
 H                  7.40115867    8.28106832   29.00555347
 H                  9.75999439    9.44674220   30.44199861
 H                  8.33133776   11.30618410   30.99503964
 H                  7.05680405   10.65058762   30.02956936
 H                  8.50552115    7.30876616   22.17391178
 H                  8.49602455    5.10792740   25.82014463
 H                  9.53362755    5.61769426   24.53535998
 H                  7.04887917    7.08128125   25.27690537
 H                  9.50905307    7.98072432   23.85288511
 H                  7.09305562    9.38635388   24.60237067
 H                  9.52133908   10.17548980   26.03732314
 H                  7.18588656    8.57694509   27.11072770

 1 2 1.0 38 1.0
 2 3 1.0 12 1.0 42 1.0
 3 4 1.0 6 1.0 43 1.0
 4 5 1.0
 5
 6 7 1.0 14 1.0 44 1.0
 7 8 1.0
 8
 9 10 1.0 12 1.0 39 1.0 40 1.0
 10 11 1.0
 11
 12 13 1.0 41 1.0
 13 14 1.0
 14 15 1.0 45 1.0
 15 16 1.0
 16 17 1.0 26 1.0 34 1.0
 17 18 1.0 20 1.0 33 1.0
 18 19 1.0
 19
 20 21 1.0 28 1.0 32 1.0
 21 22 1.0
 22
 23 24 1.0 26 1.0 36 1.0 37 1.0
 24 25 1.0
 25
 26 27 1.0 35 1.0
 27 28 1.0
 28 29 1.0 31 1.0
 29 30 1.0
 30
 31
 32
 33
 34
 35
 36
 37
 38
 39
 40
 41
 42
 43
 44
 45

