# freq=raman b3lyp/6-31+g(d,p) geom=connectivity

310 10000.com

0 1
O           7.82900         7.56000        22.80700
C           8.45200         8.03700        24.00900
C           8.16100         9.42700        24.55000
O           8.36000        10.53300        23.65700
H           8.35700        10.05200        22.78000
C           8.49600         9.87900        25.96200
O           7.62300        10.92000        26.42300
H           8.03400        11.30600        27.24900
C           8.51900         5.60900        24.87500
O           7.76200         4.81600        23.94900
H           7.96900         3.85900        24.15200
C           8.10600         7.05200        25.11400
O           8.76800         7.44600        26.32500
C           8.21600         8.66800        26.83600
O           9.07400         8.83200        27.97500
C           8.45600         8.34300        29.17400
C           8.93400         6.99800        29.69500
O           8.88300         5.91200        28.75800
H           9.01800         6.39600        27.89300
C           8.21700         6.52500        30.94900
O           8.64800         5.27200        31.50100
H           8.27600         5.13300        32.41900
C           8.11900        10.75800        30.10100
O           8.54500        11.56300        28.99200
H           8.53800        12.53800        29.21300
C           8.70700         9.36600        30.27000
O           8.06800         8.88700        31.46200
C           8.47100         7.61100        31.98100
O           7.75200         7.44400        33.21200

