# freq=raman b3lyp/6-31+g(2d,p) geom=connectivity

423 6117/6117.com

0 1
C           7.99900         7.83800         3.14200
C           7.55200         9.19000         3.67400
O           7.79100        10.22100         2.70500
H           7.18300        10.00300         1.94100
C           8.10300         9.52200         5.05200
O           7.49800        10.67100         5.66200
H           7.84300        10.87600         6.57800
C           8.32900         5.46000         3.97500
O           7.68700         4.78600         2.88300
H           7.81800         3.80400         3.01700
C           7.70300         6.82100         4.23200
O           8.41400         7.15000         5.43500
C           7.95500         8.37100         6.03400
O           8.82700         8.58900         7.15200
C           8.27500         8.35800         8.45600
C           8.86000         7.05200         8.97100
O           9.10200         6.03800         7.98500
H           9.12900         6.42000         7.06200
C           8.35100         6.53800        10.30700
O           8.90000         5.33500        10.86400
H           8.41300         5.02200        11.67900
C           7.93800        10.67300         9.21500
O           8.37800        11.40700         8.06300
H           8.17400        12.37400         8.21500
C           8.65100         9.36700         9.52800
O           8.05000         8.94000        10.75900
C           8.59200         7.70500        11.25000
O           7.65900         7.60800        12.33700
C           8.12500         7.93800        13.65300
C           7.56800         9.29900        14.03900
O           7.66700        10.30200        13.01800
H           7.62400         9.78800        12.16000
C           7.99200         9.67600        15.44900
O           7.37500        10.91500        15.82600
H           7.64400        11.12600        16.76600
C           8.33400         5.54500        14.37900
O           7.68200         4.85400        13.30400
H           7.93900         3.90100        13.46600
C           7.75900         6.91200        14.71200
O           8.36500         7.23100        15.97300
C           7.89500         8.51100        16.42100
O           8.70600         8.71700        17.58600
C           8.15000         8.41900        18.87500
C           8.75100         7.09400        19.31500
O           8.34700         6.01600        18.45800
H           8.42700         6.37100        17.52600
C           8.34000         6.73700        20.73400
O           9.04000         5.62600        21.31200
H           8.78700         5.51300        22.27300
C           7.86800        10.85900        19.66200
O           8.22200        11.55800        18.46100
H           8.11100        12.53100        18.66400
C           8.46100         9.48300        19.91600
O           8.06200         9.09000        21.23700
C           8.58500         7.85100        21.73900
O           7.88300         7.67000        22.97800
C           8.44500         8.07400        24.23600
C           7.78200         9.38600        24.62300
O           8.32400        10.39100        23.75300
H           8.26800         9.95300        22.85600
C           8.04600         9.77800        26.06800
O           7.35200        10.94000        26.54400
H           7.56700        11.08600        27.51000
C           8.68300         5.69900        24.91300
O           8.32200         4.91700        23.76600
H           8.25300         3.95500        24.03000
C           8.06300         7.03700        25.27900
O           8.48700         7.41500        26.59700
C           7.79400         8.60500        27.00200
O           8.50500         8.81900        28.23000
C           7.96400         8.43700        29.50300
C           8.58200         7.12300        29.95100
O           8.51100         6.05900        28.99100
H           8.67800         6.46300        28.09200
C           7.97800         6.64500        31.26200
O           8.49500         5.41900        31.80000
H           8.21200         5.29700        32.75100
C           7.65000        10.85500        30.27400
O           8.04700        11.44100        29.02600
H           8.03500        12.42200        29.22300
C           8.21800         9.47900        30.58000
O           7.52800         9.04100        31.76000
C           8.10400         7.81300        32.22600
O           7.25800         7.62400        33.37000
C           7.94100         7.83900        34.61400
C           7.33700         9.10500        35.20200
O           7.52400        10.23700        34.34100
H           7.37200         9.84300        33.43400
C           8.05300         9.46700        36.49300
O           7.58200        10.70100        37.05400
H           8.03200        11.00400        37.89300
C           8.20500         5.39600        35.36300
O           7.74300         4.76100        34.16200
H           7.95200         3.78700        34.24900
C           7.70900         6.79400        35.69300
O           8.39500         7.10400        36.91500
C           7.96900         8.33900        37.50800
O           8.82800         8.54000        38.64100
C           8.10400         8.16700        39.82200
C           8.56200         6.85800        40.44400
O           8.55700         5.81800        39.45600
H           8.46200         6.28000        38.57500
C           7.96600         6.48800        -0.27900
O           8.38300         5.25700         0.33000
H           8.08100         5.22000         1.28300
C           8.04000        10.67700        40.55100
O           8.50700        11.43600        39.42600
H           8.40100        12.42500        39.52500
C           8.37200         9.22500        -1.19300
O           7.68400         8.87300         0.01600
C           8.22100         7.68700         0.62000
O           7.47200         7.55700         1.83700
C           4.08800         4.10800         0.18500
C           4.39200         2.71600        42.77300
O           3.74400         1.74600        41.93600
H           4.22100         1.87100        41.06600
C           3.87700         2.45700         2.10800
O           4.56300         1.26600         2.51900
H           4.27700         1.10300         3.46400
C           3.96900         6.54700         0.96700
O           4.46800         7.25600        -0.17700
H           4.22900         8.20200         0.04300
C           4.45500         5.13400         1.24500
O           3.75700         4.86500         2.47000
C           4.26800         3.63000         2.99200
O           3.46600         3.58400         4.18100
C           4.23900         3.74000         5.38000
C           3.73500         5.08200         5.88900
O           4.14000         6.12100         4.98600
H           3.83200         5.80900         4.08800
C           4.34200         5.52500         7.21000
O           3.94200         6.82500         7.66700
H           4.09200         6.95700         8.64700
C           4.67600         1.48900         6.15000
O           4.19500         0.75500         5.01400
H           4.10100        -0.20100         5.29100
C           3.92900         2.76500         6.50400
O           4.33900         3.16200         7.82000
C           3.90000         4.47000         8.21200
O           4.69700         4.65900         9.39000
C           4.05100         4.31200        10.62300
C           4.49300         2.93400        11.08900
O           4.28500         1.88200        10.13600
H           4.41000         2.37200         9.27400
C           3.95000         2.63700        12.47800
O           4.38600         1.36600        12.98100
H           3.85000         1.19100        13.80700
C           3.89400         6.76100        11.23900
O           4.25300         7.52200        10.07700
H           4.14300         8.49900        10.25800
C           4.29200         5.36500        11.69200
O           3.74600         5.02300        12.97400
C           4.22800         3.76200        13.46000
O           3.52900         3.53300        14.69300
C           4.22300         3.91600        15.88900
C           3.90900         5.28700        16.46500
O           4.31200         6.25500        15.48600
H           4.08100         5.91900        14.57200
C           4.50800         5.55400        17.83600
O           3.92600         6.74900        18.37700
H           4.32400         6.90200        19.28100
C           4.18700         1.40100        16.59100
O           3.46700         0.73600        15.54300
H           3.72600        -0.21600        15.70300
C           3.96300         2.86000        16.95200
O           4.56400         3.17600        18.21600
C           4.11300         4.42100        18.76900
O           4.82200         4.46400        20.01600
C           4.03500         4.28100        21.20100
C           4.25400         2.86600        21.71100
O           4.12700         1.90400        20.65300
H           4.46700         2.33800        19.81900
C           3.68300         2.71600        23.11200
O           3.90800         1.36400        23.53700
H           3.53100         1.11500        24.42900
C           4.21700         6.76700        22.07300
O           4.56900         7.45700        20.86500
H           4.30600         8.39300        21.09800
C           4.55800         5.29200        22.20900
O           3.95200         5.03400        23.48300
C           4.21900         3.75700        24.08100
O           3.36700         3.77800        25.23500
C           4.16800         3.93600        26.41500
C           3.90100         5.32200        26.98000
O           4.48300         6.23500        26.03900
H           4.29400         6.01700        25.08100
C           4.39100         5.55600        28.39900
O           3.77900         6.75500        28.89700
H           4.15200         6.87100        29.81800
C           4.25900         1.52500        27.11100
O           3.81600         0.63900        26.07200
H           4.19800        -0.23400        26.37300
C           3.79400         2.92300        27.48400
O           4.49700         3.15800        28.71200
C           4.07500         4.38800        29.31900
O           4.76600         4.57000        30.56300
C           4.03700         4.28500        31.76600
C           4.34800         2.86900        32.22500
O           3.72000         2.01300        31.25900
H           4.03400         2.35500        30.37400
C           3.76800         2.56700        33.59700
O           4.40600         1.41200        34.16100
H           3.85400         1.19700        34.96600
C           3.83700         6.76700        32.57400
O           4.03200         7.48900        31.34900
H           3.88600         8.46100        31.53500
C           4.25600         5.33200        32.84600
O           3.51600         4.98300        34.02400
C           3.97700         3.73100        34.55200
O           3.17400         3.60700        35.73500
C           3.95000         3.80300        36.92600
C           3.79100         5.18800        37.53000
O           4.14100         6.17500        36.54800
H           3.82800         5.79000        35.68000
C           4.51400         5.37400        38.85400
O           4.12900         6.65200        39.38100
H           4.48700         6.71900        40.31200
C           4.12600         1.33800        37.71000
O           3.72600         0.64500        36.51900
H           3.93000        -0.31300        36.72000
C           3.70400         2.76700        38.01100
O           4.53500         3.03100        39.15100
C           4.21000         4.25100        39.83300
O           4.87800         4.39600        41.09400
C           8.19500        15.89600         3.11800
C           7.68700        17.26700         3.53400
O           8.05000        18.23500         2.53900
H           7.74100        17.87100         1.66000
C           8.21800        17.61000         4.91700
O           7.81900        18.92100         5.34300
H           8.24900        18.96400         6.24500
C           8.20300        13.44200         4.00300
O           7.95800        12.88000         2.70500
H           8.13200        11.89500         2.69000
C           7.79200        14.89400         4.18700
O           8.22800        15.21600         5.51600
C           7.81800        16.53300         5.91200
O           8.68400        16.67300         7.04700
C           8.11600        16.49300         8.35200
C           8.52300        15.12800         8.88400
O           8.17400        14.12000         7.92500
H           8.47900        14.49500         7.05000
C           8.01800        14.78300        10.27500
O           8.53100        13.51900        10.72100
H           8.22700        13.44200        11.67000
C           7.97100        18.95800         8.88400
O           8.61600        19.51400         7.72900
H           8.37400        20.48300         7.77400
C           8.41900        17.58700         9.36300
O           7.83400        17.16800        10.60500
C           8.35200        15.95900        11.17800
O           7.66500        16.02500        12.43500
C           8.31800        16.21600        13.69800
C           7.82100        17.56500        14.19100
O           8.02100        18.56500        13.18100
H           7.71300        18.03400        12.39200
C           8.15000        17.93700        15.62700
O           7.41200        19.09400        16.04800
H           7.62000        19.18900        17.02200
C           8.11300        13.73400        14.32700
O           7.48800        13.11700        13.19200
H           7.51200        12.13200        13.36200
C           7.81300        15.18000        14.68800
O           8.43000        15.52500        15.93700
C           7.82600        16.71300        16.46800
O           8.48400        16.95000        17.72100
C           7.80900        16.62300        18.94500
C           8.40200        15.27900        19.33700
O           8.11600        14.23400        18.39700
H           8.36500        14.59700        17.49800
C           7.90100        14.86800        20.71200
O           8.32700        13.58100        21.18200
H           7.97800        13.31500        22.08100
C           7.32100        18.99300        19.80200
O           7.59800        19.70800        18.58900
H           7.52300        20.67100        18.84900
C           8.06900        17.68400        20.00100
O           7.50900        17.21900        21.23700
C           8.13300        16.00900        21.69000
O           7.41400        15.68100        22.88800
C           7.89400        16.12600        24.16500
C           7.43000        17.49700        24.63000
O           7.61400        18.50800        23.62900
H           7.38800        18.07000        22.75900
C           7.99700        17.91400        25.97800
O           7.30800        19.00600        26.60500
H           7.75700        19.37800        27.41700
C           8.35500        13.75400        24.76300
O           7.85600        12.96100        23.67600
H           7.93100        11.98700        23.89000
C           7.70900        15.05100        25.22300
O           8.30500        15.51500        26.44300
C           7.82500        16.76500        26.95800
O           8.70900        16.97300        28.06900
C           8.16000        16.50600        29.31000
C           8.61400        15.14100        29.80000
O           8.14600        14.13200        28.89400
H           8.32500        14.45600        27.96500
C           8.06100        14.77900        31.16900
O           8.56200        13.49900        31.58200
H           8.34500        13.39400        32.55200
C           8.04300        18.90200        30.15800
O           8.60900        19.77400        29.16900
H           8.40500        20.73000        29.37900
C           8.43300        17.46400        30.45800
O           7.76700        17.11600        31.68100
C           8.32300        15.88800        32.17400
O           7.51900        15.55100        33.31300
C           7.93900        15.94700        34.62700
C           7.21800        17.19300        35.11500
O           7.29900        18.30300        34.21000
H           7.56000        18.08800        33.26900
C           7.68600        17.64800        36.48800
O           6.96700        18.77700        37.00500
H           7.42900        18.97400        37.87000
C           8.31300        13.50400        35.24100
O           7.74500        12.78800        34.13500
H           7.81900        11.80100        34.27100
C           7.79800        14.86400        35.68400
O           8.33900        15.30600        36.93700
C           7.71700        16.48600        37.46700
O           8.52300        16.80400        38.61100
C           7.89400        16.35300        39.81900
C           8.41000        15.03000        40.36000
O           8.23900        13.99200        39.38400
H           8.64600        14.27200        38.51500
C           8.04600        14.59800        -0.29900
O           8.72800        13.45200         0.23100
H           8.43700        13.34200         1.18100
C           7.94900        18.71800        40.63700
O           8.20600        19.50800        39.46600
H           7.74200        20.38900        39.55100
C           8.41000        17.28900        -1.17100
O           7.90600        17.08800         0.15700
C           8.30800        15.78800         0.61000
O           7.60800        15.58400         1.84600
C           3.50800        12.50500         0.37800
C           3.84500        11.09100        42.88000
O           3.36600        10.19900        41.86400
H           3.47500        10.70100        41.00600
C           3.35200        10.70600         2.19400
O           3.86700         9.44700         2.65000
H           3.75300         9.49100         3.64300
C           3.62800        14.90600         1.10700
O           4.30800        15.50800        -0.00400
H           4.09400        16.48500        -0.01500
C           3.92100        13.46300         1.48400
O           3.35100        13.07100         2.74100
C           3.77200        11.77500         3.19000
O           3.06200        11.69200         4.43400
C           3.89700        12.05300         5.54400
C           3.45800        13.41100         6.06600
O           3.57900        14.43000         5.06200
H           3.36900        14.05500         4.15900
C           4.06400        13.77000         7.41300
O           3.49200        15.01400         7.84300
H           3.84900        15.26600         8.74200
C           4.08800         9.60100         6.43200
O           3.80000         8.95100         5.18500
H           3.87500         7.97800         5.40400
C           3.70500        11.05200         6.67200
O           4.42100        11.41700         7.86000
C           3.86500        12.62700         8.39400
O           4.55900        12.84800         9.63000
C           3.91300        12.48200        10.85800
C           4.23300        11.08500        11.36400
O           3.88800        10.13200        10.34800
H           4.17400        10.53900         9.48000
C           3.64100        10.74600        12.72300
O           3.87500         9.42400        13.23000
H           3.58000         9.41900        14.18600
C           3.86600        14.94200        11.56400
O           4.15500        15.66700        10.36000
H           3.96800        16.63100        10.55100
C           4.28000        13.52000        11.90500
O           3.63100        13.17500        13.13700
C           3.98600        11.88800        13.66400
O           3.20100        11.78500        14.86100
C           3.92200        11.93900        16.09200
C           3.45600        13.29600        16.59500
O           3.83100        14.30300        15.64400
H           3.57000        13.95700        14.74300
C           4.13400        13.54900        17.93200
O           3.64800        14.78200        18.48100
H           4.15800        14.90900        19.33100
C           4.01500         9.47600        16.91500
O           3.55400         8.79100        15.74200
H           3.79400         7.82100        15.78900
C           3.53200        10.90100        17.13200
O           4.06100        11.15100        18.44200
C           3.74500        12.46500        18.92400
O           4.60700        12.66900        20.05300
C           4.02500        12.38800        21.33400
C           4.21900        10.97300        21.85400
O           4.00800         9.92500        20.89700
H           4.36500        10.25200        20.02200
C           3.59800        10.68300        23.21100
O           3.79100         9.37700        23.77400
H           3.55100         9.29300        24.74100
C           4.01300        14.80100        22.11800
O           3.96700        15.60500        20.93000
H           3.52300        16.49800        21.00500
C           4.50600        13.38600        22.37500
O           3.99500        13.06800        23.67700
C           4.19300        11.72500        24.14400
O           3.36000        11.78000        25.31200
C           4.02300        11.98100        26.56900
C           3.86900        13.42100        27.03000
O           4.46300        14.29300        26.05800
H           4.13200        14.03300        25.15100
C           4.41400        13.73000        28.41500
O           3.97500        15.06300        28.71200
H           4.00300        15.29500        29.68400
C           3.92000         9.61800        27.35900
O           3.49500         8.83300        26.23600
H           3.71400         7.87700        26.42700
C           3.45500        11.04200        27.62000
O           4.03300        11.31700        28.90500
C           3.85900        12.66900        29.35200
O           4.51100        12.68700        30.63000
C           3.73800        12.44400        31.81500
C           3.96800        11.03400        32.33400
O           3.50100        10.12500        31.32700
H           3.84700        10.44400        30.44400
C           3.48500        10.79900        33.75600
O           3.83100         9.47700        34.19600
H           3.50600         9.51700        35.14100
C           4.00300        14.88800        32.54200
O           4.18900        15.58400        31.30000
H           4.00200        16.53900        31.53100
C           4.28900        13.42500        32.83700
O           3.76500        13.18200        34.15100
C           4.07400        11.87400        34.65400
O           3.31400        11.91500        35.87100
C           3.94000        12.04900        37.15500
C           3.64300        13.45100        37.66000
O           3.87700        14.42400        36.63200
H           3.60300        13.95600        35.79200
C           4.34600        13.61600        38.99800
O           4.25600        14.99700        39.37900
H           4.39400        14.92100        40.36700
C           3.82100         9.60600        38.02300
O           3.34000         8.79000        36.94600
H           3.67600         7.85400        37.05600
C           3.37800        11.05400        38.15800
O           3.82900        11.31700        39.49400
C           3.62800        12.66500        39.94200
O           4.24900        12.68900        41.23500
C           8.08800        24.17400         3.06800
C           7.60000        25.54600         3.50300
O           7.71600        26.59200         2.52700
H           7.53100        26.09600         1.67800
C           8.18300        26.00000         4.83100
O           7.58200        27.19900         5.34100
H           7.86400        27.33000         6.29200
C           8.47600        21.81700         3.65500
O           8.12600        21.06600         2.48400
H           8.21600        20.08200         2.64000
C           7.76700        23.09100         4.08400
O           8.29300        23.61000         5.31400
C           7.84300        24.88200         5.80200
O           8.63200        25.08400         6.98400
C           8.05800        24.64700         8.22500
C           8.63900        23.36400         8.79700
O           8.41600        22.21000         7.97400
H           8.77900        22.52100         7.09600
C           8.07600        23.09400        10.18300
O           8.81000        21.95000        10.64300
H           8.46200        21.76100        11.56100
C           7.63000        27.10100         9.01300
O           7.97600        27.87300         7.85400
H           7.91200        28.85200         8.04900
C           8.20700        25.72200         9.28900
O           7.52600        25.33600        10.49200
C           8.23200        24.26600        11.13800
O           7.42700        23.86000        12.25400
C           7.88400        24.25500        13.55600
C           7.24000        25.55300        14.01500
O           7.25500        26.60600        13.04000
H           7.08200        26.29300        12.10600
C           7.86500        25.96600        15.33800
O           7.34800        27.19600        15.86700
H           7.65700        27.32000        16.81000
C           8.29400        21.78100        14.41200
O           8.06900        21.11000        13.16300
H           8.26200        20.13200        13.24200
C           7.68200        23.16100        14.59100
O           8.20100        23.59500        15.85700
C           7.63900        24.83100        16.32200
O           8.34500        25.08500        17.54500
C           7.71600        24.74300        18.78900
C           8.19200        23.41100        19.34600
O           8.13400        22.32600        18.40900
H           8.42400        22.69500        17.52600
C           7.53700        22.98000        20.64800
O           7.89700        21.67700        21.12900
H           7.62000        21.55000        22.08100
C           7.63900        27.13600        19.62900
O           7.68800        27.81900        18.36800
H           7.73900        28.74700        18.73800
C           8.17300        25.73100        19.85000
O           7.77000        25.43200        21.19500
C           8.02600        24.07400        21.58300
O           7.18200        24.12000        22.74300
C           7.82200        24.39500        23.99800
C           7.34600        25.74200        24.51500
O           7.59800        26.73000        23.50500
H           7.60800        26.20500        22.65400
C           7.85600        26.10600        25.90000
O           7.16400        27.28600        26.33300
H           7.42600        27.72600        27.19200
C           7.76100        21.93400        24.86000
O           7.24800        21.23000        23.71900
H           7.53600        20.28600        23.88100
C           7.44500        23.40400        25.08700
O           8.14000        23.72200        26.30100
C           7.60500        24.93900        26.84200
O           8.40700        25.16600        28.00900
C           7.81200        24.68000        29.22100
C           8.43400        23.44200        29.84600
O           8.44000        22.42000        28.83800
H           8.43600        22.83300        27.92800
C           7.70000        22.85800        31.04200
O           8.30800        21.66300        31.55300
H           7.73300        21.42700        32.33600
C           7.52200        27.14200        30.06800
O           8.10300        27.87800        28.98100
H           8.13100        28.86200        29.15900
C           7.94200        25.70600        30.33500
O           7.13600        25.23300        31.42400
C           7.75100        24.05800        31.97400
O           7.04100        23.88500        33.20900
C           7.72400        24.22300        34.42500
C           7.19700        25.55100        34.94300
O           7.58300        26.53000        33.96800
H           7.10300        26.27000        33.13000
C           7.74500        25.94700        36.30400
O           7.28300        27.19800        36.83300
H           7.48500        27.27100        37.81000
C           7.84900        21.72900        35.29700
O           7.59200        20.87800        34.17100
H           7.70800        19.90700        34.38200
C           7.43600        23.17900        35.49100
O           7.97300        23.51500        36.77900
C           7.48400        24.78100        37.24500
O           8.16900        24.92800        38.49700
C           7.72400        24.58000        39.81600
C           8.20800        23.19300        40.20700
O           7.73500        22.17400        39.31400
H           7.72400        22.54100        38.38400
C           7.89000        22.80200        -0.43000
O           8.61600        21.64500         0.01100
H           8.15100        21.47400         0.88000
C           7.50400        26.95400        40.72600
O           7.61900        27.64300        39.47200
H           7.70100        28.63800        39.53000
C           8.19200        25.59800        -1.22900
O           7.71400        25.16000         0.05100
C           8.24900        23.92000         0.53600
O           7.52200        23.92400         1.77300
C           3.67000        20.46200         0.23400
C           3.95900        19.11700        42.94300
O           3.71500        18.08500        41.97700
H           3.91300        18.50400        41.09100
C           3.39500        18.74500         2.23300
O           3.98600        17.58700         2.84000
H           3.78600        17.59500         3.82000
C           3.50500        22.87600         0.96400
O           4.10800        23.61800        -0.10600
H           3.84100        24.57300         0.02500
C           3.98800        21.47900         1.31800
O           3.26500        21.24400         2.53500
C           3.68000        19.98000         3.07200
O           3.10400        19.86500         4.38200
C           3.99000        20.08700         5.48900