# freq=raman b3lyp/6-31+g(2df,p) geom=connectivity

500 6000.com

0 1
 O                  8.84100000    7.21700000   12.09200000
 C                  9.44900000    7.35600000   13.38500000
 C                  9.39200000    8.80100000   13.85100000
 O                 10.35300000    9.54200000   13.08600000
 H                 10.44000000    9.17100000   12.16100000
 C                  9.71900000    9.05000000   15.31500000
 O                  9.24000000   10.35400000   15.67400000
 H                 10.00800000   10.99600000   15.66800000
 C                  8.95000000    4.96800000   14.15800000
 O                  8.49800000    4.00100000   15.11800000
 H                  8.56900000    3.16200000   14.57700000
 C                  8.74900000    6.45600000   14.39100000
 O                  9.11100000    6.76600000   15.74500000
 C                  9.04400000    8.09400000   16.28500000
 O                  9.73100000    7.93000000   17.53400000
 C                  9.18000000    7.56800000   18.80800000
 C                  8.90900000    6.12200000   19.18900000
 O                  8.07200000    5.55400000   18.17100000
 H                  8.46800000    5.73000000   17.26900000
 C                  8.21900000    5.97300000   20.53500000
 O                  7.61100000    4.69200000   20.75400000
 H                  7.06600000    4.74000000   19.91700000
 C                 10.39200000    9.55600000   19.57500000
 O                  9.46100000   10.45200000   20.19900000
 H                  9.72600000   11.38500000   19.95600000
 C                 10.03000000    8.12500000   19.93800000
 O                  9.56300000    7.84500000   21.26600000
 C                  9.21200000    6.48600000   21.56600000
 O                  8.70000000    6.65900000   22.89500000
 H                  9.52538279    7.14504254   11.42264036
 H                 10.00060121    4.81166650   14.02878335
 H                  8.47497382    4.73081463   13.22902571
 H                  7.70014996    6.64591117   14.29747277
 H                 10.47453869    7.05890390   13.31496924
 H                  8.41594441    9.18892354   13.64671880
 H                 10.77904620    9.00923454   15.45478640
 H                  8.02628153    8.38002516   16.45034428
 H                 11.38184227    9.77255459   19.91882611
 H                 10.34793984    9.67744292   18.51282755
 H                 10.95433425    7.59030876   19.87009214
 H                  9.43129909    6.73928170   23.51173048
 H                 10.08754413    5.87110300   21.58097228
 H                  7.41202980    6.67563193   20.53226614
 H                  9.83679592    5.58956380   19.21362573
 H                  8.23554920    8.06747007   18.86667147

 1 2 1.0 30 1.0
 2 3 1.0 12 1.0 34 1.0
 3 4 1.0 6 1.0 35 1.0
 4 5 1.0
 5
 6 7 1.0 14 1.0 36 1.0
 7 8 1.0
 8
 9 10 1.0 12 1.0 31 1.0 32 1.0
 10 11 1.0
 11
 12 13 1.0 33 1.0
 13 14 1.0
 14 15 1.0 37 1.0
 15 16 1.0
 16 17 1.0 26 1.0 45 1.0
 17 18 1.0 20 1.0 44 1.0
 18 19 1.0
 19
 20 21 1.0 28 1.0 43 1.0
 21 22 1.0
 22
 23 24 1.0 26 1.0 38 1.0 39 1.0
 24 25 1.0
 25
 26 27 1.0 40 1.0
 27 28 1.0
 28 29 1.0 42 1.0
 29 41 1.0
 30
 31
 32
 33
 34
 35
 36
 37
 38
 39
 40
 41
 42
 43
 44
 45

