# freq=raman b3lyp/6-31+g(2d,p) geom=connectivity

350 7524/7524.com

0 1
C           8.32800         7.92600         3.11700
C           7.92600         9.30200         3.62300
O           8.13100        10.31500         2.62800
H           7.97900         9.88300         1.73900
C           8.44400         9.66200         5.00600
O           7.92500        10.89400         5.52900
H           8.32000        11.12600         6.41800
C           8.45800         5.47900         4.02900
O           8.07300         4.72900         2.86800
H           8.37300         3.77800         2.93300
C           8.07000         6.93400         4.24000
O           8.63100         7.23400         5.52600
C           8.11900         8.50900         5.94200
O           8.88600         8.77700         7.12500
C           8.26500         8.33500         8.34100
C           8.86500         7.02500         8.82300
O           8.73300         5.93900         7.89400
H           9.06600         6.23300         6.99800
C           8.32400         6.60200        10.17900
O           8.98000         5.39500        10.59300
H           8.76600         5.26900        11.56200
C           8.07200        10.79700         9.15700
O           8.64800        11.51000         8.05300
H           8.44800        12.48700         7.97700
C           8.55700         9.37800         9.40800
O           8.03100         8.96300        10.67700
C           8.60600         7.73700        11.14900
O           7.77700         7.58800        12.31100
C           8.44900         7.85000        13.55100
C           7.87100         9.20600        13.92200
O           8.51300        10.15900        13.06300
H           8.31900         9.93600        12.10700
C           8.18600         9.57700        15.36200
O           7.66400        10.74000        16.02300
H           8.15400        10.79300        16.89200
C           8.80700         5.55900        14.33100
O           8.50800         4.70100        13.22000
H           8.85800         3.81000        13.50900
C           8.10000         6.86500        14.65500
O           8.48100         7.29700        15.96900
C           7.83100         8.50800        16.38200
O           8.71200         8.81700        17.47200
C           8.16700         8.43100        18.74200
C           8.59100         7.09700        19.33400
O           8.51400         6.02900        18.37800
H           8.92300         6.15600        17.47400
C           7.86700         6.76700        20.62900
O           8.45900         5.55400        21.11800
H           8.06000         5.40700        22.02300
C           7.88600        10.81600        19.59700
O           8.50200        11.63000        18.58900
H           8.30900        12.60700        18.68400
C           8.44500         9.42700        19.85600
O           7.78400         9.10200        21.08800
C           8.20900         7.84800        21.64100
O           7.44000         7.66600        22.83900
C           8.00200         8.00000        24.11600
C           7.59000         9.37600        24.61400
O           7.88700        10.41400        23.66900
H           7.80700         9.86200        22.84000
C           8.15600         9.67200        25.99300
O           7.54300        10.86000        26.51400
H           7.95300        10.93700        27.42300
C           8.09600         5.57300        24.82100
O           7.48600         4.87200        23.72800
H           7.60900         3.88400        23.82700
C           7.71900         6.99100        25.21700
O           8.38700         7.22400        26.46600
C           7.90400         8.49600        26.92300
O           8.64400         8.79300        28.11700
C           8.16300         8.40300        29.41100
C           8.58100         7.01400        29.86600
O           8.10500         6.05400        28.91100
H           8.44700         6.36100        28.02300
C           8.05000         6.67800        31.25000
O           8.63500         5.47600        31.77000
H           8.45500         5.43100        32.75300
C           8.18400        10.80200        30.28700
O           8.34900        11.45900        29.02200
H           8.43200        12.44800        29.14600
C           8.62100         9.36100        30.49800
O           8.01000         9.06000        31.76100
C           8.51700         7.78500        32.18100
O           7.80500         7.57000        33.40900
C           8.30600         7.95600        34.69700
C           7.62600         9.17700        35.29600
O           7.69100        10.22500        34.31800
H           7.50500         9.79500        33.43400
C           8.23500         9.64700        36.60700
O           7.42600        10.70700        37.13500
H           7.79000        10.81100        38.06100
C           8.63700         5.45100        35.41100
O           7.87500         4.84000        34.36000
H           7.98000         3.86300        34.54700
C           8.26900         6.88100        35.77100
O           9.07900         7.39400        36.83900
C           8.36000         8.43500        37.51600
O           9.01900         8.76500        38.74700
C           8.28400         8.35500        39.91000
C           8.80800         7.04900        40.48500
O           8.49500         6.01200        39.54400
H           9.24200         6.18700        38.90300
C           8.14700         6.61500        -0.28800
O           8.82700         5.47200         0.25100
H           8.35900         5.33500         1.12400
C           8.14000        10.76700        40.79300
O           8.45500        11.42500        39.55700
H           8.62800        12.39400        39.73600
C           8.56700         9.32100        -1.00300
O           7.96100         9.04900         0.26900
C           8.37600         7.74500         0.70200
O           7.62600         7.58100         1.91400
C           4.20900         4.42300         0.20500
C           4.57600         3.03500        42.73200
O           4.09000         2.03300        41.82800
H           4.24500         2.26400        40.86800
C           4.17000         2.67700         2.08700
O           4.34000         1.34900         2.60400
H           4.18600         1.36600         3.59200
C           4.12100         6.73200         1.01400
O           4.16100         7.51200        -0.19000
H           4.04200         8.45200         0.12800
C           4.67300         5.34900         1.31800
O           4.19000         5.06300         2.63800
C           4.68300         3.76900         3.01300
O           4.00700         3.52200         4.25400
C           4.53800         3.90000         5.53300
C           4.31000         5.34200         5.95700
O           4.54300         6.36100         4.97400
H           4.17600         5.93500         4.14700
C           5.03400         5.60000         7.26800
O           4.88100         6.92700         7.79200
H           4.97600         6.96400         8.78600
C           4.21200         1.53000         6.34500
O           3.70300         0.92300         5.14900
H           3.80800        -0.07100         5.17900
C           3.88400         2.99800         6.56600
O           4.47300         3.30100         7.83900
C           4.37100         4.66700         8.26800
O           4.99000         4.65800         9.56300
C           4.28100         4.42300        10.78800
C           4.66600         3.02600        11.24500
O           4.24300         2.03900        10.29300
H           4.51400         2.48900         9.44300
C           3.96700         2.83500        12.58100
O           4.12700         1.50800        13.10300
H           3.85500         1.48000        14.06500
C           4.24900         6.87300        11.47600
O           4.73600         7.55800        10.31300
H           4.48500         8.52600        10.34600
C           4.65800         5.45500        11.84000
O           4.03000         5.15800        13.09500
C           4.38300         3.86800        13.61600
O           3.57100         3.71400        14.78900
C           4.27500         3.94900        16.01700
C           3.82600         5.33500        16.44900
O           4.23300         6.36900        15.54200
H           4.11300         6.12300        14.58000
C           4.33100         5.73400        17.82700
O           3.87100         6.96200        18.40900
H           4.14800         6.91700        19.36900
C           4.33900         1.50600        16.70900
O           3.88700         0.70100        15.61000
H           4.34300        -0.18800        15.65500
C           3.81300         2.89900        17.01400
O           4.35000         3.34800        18.26600
C           3.93200         4.62000        18.78200
O           4.63600         4.85700        20.00900
C           4.04900         4.44000        21.25000
C           4.53500         3.08600        21.74200
O           4.28100         2.08400        20.74700
H           4.28500         2.58200        19.88100
C           3.93800         2.60400        23.05400
O           4.50700         1.38300        23.54900
H           4.36300         1.18500        24.51800
C           3.67600         6.74300        22.08900
O           4.26900         7.57600        21.08200
H           4.08500         8.53700        21.28600
C           4.35000         5.41200        22.37900
O           3.68100         4.92500        23.55100
C           4.16900         3.68900        24.09300
O           3.44300         3.59200        25.32700
C           4.23300         3.86100        26.49400
C           3.84400         5.25900        26.94600
O           3.84700         6.38200        26.05300
H           3.41500         6.20200        25.16900
C           4.61500         5.56800        28.21900
O           4.18200         6.84800        28.70200
H           4.46100         7.00200        29.65000
C           4.64500         1.45200        27.29400
O           4.26000         0.78100        26.08500
H           4.19500        -0.21600        26.08600
C           4.06600         2.82500        27.59400
O           4.77600         3.22500        28.77500
C           4.30200         4.49400        29.24800
O           4.92100         4.76800        30.51400
C           4.16200         4.43600        31.68500
C           4.61400         3.09100        32.23100
O           4.76500         2.01600        31.29200
H           4.82000         2.34000        30.34800
C           3.98300         2.79500        33.58200
O           4.55700         1.61900        34.17100
H           4.18600         1.50500        35.09300
C           4.02600         6.88300        32.40900
O           4.57400         7.55100        31.26300
H           5.12200         8.32400        31.58100
C           4.41700         5.46200        32.77700
O           3.83600         5.20000        34.06300
C           4.19200         3.91300        34.59000
O           3.43800         3.75900        35.80100
C           4.21600         3.98500        36.98600
C           3.89200         5.34900        37.57200
O           4.03900         6.39400        36.59900
H           3.76700         6.11900        35.67700
C           4.36100         5.71100        38.97200
O           3.55000         6.78900        39.46100
H           3.80500         6.93200        40.41800
C           4.19700         1.49800        37.72700
O           3.86400         0.72400        36.56600
H           4.16000        -0.22700        36.65400
C           3.91300         2.95400        38.06000
O           4.49300         3.31800        39.32100
C           4.01000         4.54700        39.88500
O           4.85000         4.73700        41.03300
C           8.21900        16.22300         3.07500
C           7.36200        17.35600         3.61500
O           7.36700        18.50100         2.75100
H           7.04600        18.18500         1.85800
C           7.94200        17.84000         4.93400
O           7.29900        18.99600         5.49000
H           7.53500        19.29100         6.41600
C           8.43600        13.69700         3.88200
O           7.47100        13.03600         3.05100
H           7.59200        12.07000         3.28000
C           7.97300        15.12800         4.10000
O           8.53300        15.51900         5.36200
C           7.88700        16.67700         5.91100
O           8.70300        17.03300         7.03600
C           8.29300        16.49900         8.30300
C           9.02500        15.23100         8.71100
O           8.81600        14.19600         7.74000
H           9.17700        14.60700         6.90300
C           8.55800        14.84000        10.10300
O           9.26800        13.69300        10.59300
H           8.88300        13.42600        11.47700
C           7.59800        18.85700         9.13000
O           7.66900        19.56300         7.88300
H           7.89200        20.52600         8.03700
C           8.36600        17.57000         9.37900
O           7.84600        17.01700        10.59700
C           8.67300        15.96600        11.11700
O           7.88000        15.56800        12.24500
C           8.20900        15.92300        13.59500
C           7.62600        17.25800        14.03100
O           7.79300        18.35400        13.11900
H           7.82400        17.86000        12.25100
C           8.12800        17.70600        15.39400
O           7.63000        18.99200        15.79100
H           7.75200        18.96600        16.78300
C           8.19800        13.59500        14.35100
O           7.87800        12.88000        13.14900
H           8.15400        11.93600        13.33200
C           7.63100        14.97600        14.63500
O           8.31000        15.38200        15.83200
C           7.85100        16.61100        16.41100
O           8.56900        16.72700        17.64800
C           7.88000        16.44000        18.87400
C           8.38400        15.07500        19.31300
O           7.72900        14.08700        18.50400
H           8.08200        14.25600        17.58400
C           8.19900        14.78000        20.79300
O           9.14700        13.81700        21.27600
H           8.88700        13.65500        22.22800
C           7.81600        18.94800        19.59100
O           8.28600        19.64200        18.42700
H           8.07600        20.61900        18.43800
C           8.27300        17.52500        19.86400
O           7.79200        17.21700        21.18100
C           8.35300        15.99800        21.68900
O           7.55700        15.85600        22.87500
C           8.11100        16.20500        24.15300
C           7.51100        17.52500        24.60800
O           7.82300        18.48700        23.58900
H           7.64200        18.03600        22.71500
C           7.82800        17.84700        26.05900
O           7.09500        18.94000        26.63100
H           7.38900        19.07900        27.57700
C           8.32800        13.71800        25.03600
O           8.23200        13.08400        23.75300
H           8.36700        12.09700        23.84300
C           7.99200        15.18200        25.27100
O           8.60200        15.55700        26.51400
C           7.89700        16.69000        27.04200
O           8.74300        16.90300        28.18100
C           8.26800        16.46100        29.46100
C           9.03200        15.26900        30.01500
O           9.07400        14.24100        29.01600
H           9.18400        14.81500        28.20500
C           8.54200        14.61600        31.29700
O           9.10000        13.43700        31.89500
H           8.55500        13.24200        32.71100
C           7.56400        18.84700        30.33100
O           7.75100        19.57300        29.10800
H           7.79300        20.56300        29.24600
C           8.29700        17.53200        30.53900
O           7.75600        16.93200        31.72600
C           8.44200        15.79000        32.25800
O           7.65700        15.49800        33.42300
C           8.09500        16.02300        34.68500
C           7.46800        17.34000        35.11300
O           7.90100        18.37100        34.21300
H           7.90900        17.99500        33.28700
C           7.98400        17.81100        36.46300
O           7.31700        18.96700        36.99200
H           7.66500        19.17800        37.90500
C           8.44200        13.60000        35.34500
O           7.88800        12.89900        34.22200
H           7.76900        11.92900        34.43400
C           7.97100        14.97800        35.78100
O           8.49400        15.40400        37.04800
C           7.92700        16.65900        37.45300
O           8.70200        17.05700        38.59300
C           8.24500        16.66000        39.89400
C           8.73300        15.31500        40.40700
O           8.58900        14.24300        39.46400
H           8.47100        14.74800        38.60900
C           8.18600        14.85900        -0.31900
O           8.81300        13.65800         0.15400
H           8.22500        13.34100         0.89800
C           8.13200        19.08000        40.68300
O           8.61200        19.82400        39.55300
H           8.31100        20.77700        39.51800
C           8.70100        17.67900        -1.12100
O           8.08300        17.22500         0.09200
C           8.59200        15.98900         0.61400
O           7.75200        15.85500         1.76900
C           4.10300        12.42000         0.48300
C           4.18300        10.99000         0.99000
O           3.54600        10.06900         0.09300
H           3.76600        10.44000        -0.80900
C           3.67600        10.79700         2.41000
O           4.16600         9.49500         2.76200
H           3.95900         9.32100         3.72500
C           3.85900        14.71100         1.19700
O           4.41800        15.52200         0.15300
H           4.11700        16.45700         0.34000
C           4.52400        13.39600         1.56900
O           3.90800        13.13900         2.83900
C           4.25200        11.84300         3.35000
O           3.49200        11.90600         4.56600
C           4.17800        12.10100         5.81100
C           3.90400        13.51300         6.30600
O           4.47100        14.47600         5.40600
H           4.25100        14.20900         4.46700
C           4.56100        13.79800         7.64600
O           4.10100        15.05100         8.17200
H           4.39400        15.13000         9.12500
C           4.13400         9.68600         6.59700
O           4.08600         9.00200         5.33600
H           4.32800         8.04000         5.46100
C           3.63900        11.10500         6.82400
O           4.10600        11.33100         8.16200
C           4.08600        12.70200         8.58600
O           4.87300        12.57100         9.77900
C           4.13900        12.31900        10.98600
C           4.35600        10.92900        11.56100
O           3.86800        10.00800        10.57500
H           3.98200        10.41100         9.66700
C           3.81200        10.77400        12.97200
O           4.25800         9.47500        13.38800
H           4.02100         9.25600        14.33400
C           4.20500        14.81800        11.89200
O           4.88600        15.43700        10.79100
H           4.59700        16.39100        10.86900
C           4.54000        13.34300        12.03600
O           3.94000        13.14000        13.32300
C           4.23700        11.87400        13.93100
O           3.42200        11.88100        15.11300
C           4.03600        12.26100        16.35300
C           3.44000        13.57700        16.82700
O           3.52100        14.56200        15.78600
H           3.38800        14.09300        14.91300
C           4.09000        13.91200        18.15900
O           3.60200        15.16000        18.67100
H           3.92400        15.18700        19.61700
C           3.87700         9.67000        17.19200
O           3.78200         9.16400        15.85200
H           3.91600         8.19300        16.04900
C           3.68200        11.16900        17.35000
O           4.00400        11.50400        18.70800
C           3.70700        12.83300        19.16000
O           4.50900        12.95400        20.34400
C           3.94800        12.53200        21.59600
C           4.12700        11.11000        22.10300
O           3.63000        10.19400        21.11700
H           3.86300        10.61800        20.24200
C           3.44800        10.82100        23.43200
O           3.73700         9.49400        23.89700
H           3.65800         9.43600        24.89200
C           3.94900        14.87600        22.40500
O           4.70700        15.61900        21.43900
H           4.65100        16.59500        21.65200
C           4.44000        13.46600        22.68900
O           3.81800        13.19900        23.95500
C           3.96500        11.85100        24.42200
O           3.19400        11.82900        25.63200
C           3.92800        12.13200        26.82700
C           3.64800        13.54600        27.31100
O           3.92000        14.47300        26.25100
H           3.89600        13.97700        25.38300
C           4.36900        13.90800        28.59900
O           3.73100        15.13000        28.99700
H           3.83400        15.27000        29.98200
C           4.27200         9.80400        27.66500
O           3.62900         8.99900        26.66700
H           3.84900         8.04500        26.87300
C           3.72300        11.18200        27.99600
O           4.46700        11.58300        29.15600
C           4.10200        12.87000        29.67700
O           4.93600        13.00700        30.83700
C           4.22600        12.69500        32.04400
C           4.75300        11.40100        32.64100
O           5.07700        10.42000        31.64500
H           5.04500        10.89900        30.76700
C           3.84600        10.97200        33.78200
O           4.17500         9.65500        34.25000
H           4.12900         9.68300        35.24900
C           3.84200        15.09100        32.73800
O           4.43500        15.77500        31.62400
H           4.06900        16.69000        31.79000
C           4.34600        13.72000        33.16000
O           3.78600        13.34800        34.42700
C           4.10800        12.01600        34.85500
O           3.38700        11.90100        36.09000
C           4.15000        12.02000        37.30000
C           3.93700        13.45400        37.75600
O           4.33500        14.44200        36.79400
H           4.17600        14.14000        35.85400
C           4.53500        13.70400        39.13100
O           4.37700        15.05000        39.60200
H           4.51300        15.07400        40.59300
C           4.19900         9.54600        38.01800
O           3.90700         8.98200        36.73100
H           4.24400         8.04100        36.76600
C           3.75200        10.96700        38.32100
O           4.22700        11.29400        39.63500
C           4.00300        12.64100        40.07700
O           4.75600        12.65200        41.29900
C           7.94500        24.36700         3.05100
C           7.52400        25.76600         3.46900
O           8.01800        26.73900         2.53600
H           7.87900        26.27200         1.66200
C           7.87600        26.05100         4.92000
O           7.58400        27.34800         5.46000
H           8.23600        27.54000         6.19300
C           7.66400        21.92600         3.84300
O           7.44100        21.19400         2.62800
H           7.52000        20.26200         2.98000
C           7.24000        23.38000         3.96800
O           7.64500        23.72700         5.30100
C           7.37000        25.00300         5.89700
O           8.17300        25.18900         7.07200
C           7.77700        24.70400         8.36300
C           8.14100        23.30100         8.82200
O           7.82800        22.34000         7.80300
H           7.91600        22.88300         6.96800
C           7.72200        22.91700        10.23100
O           7.88800        21.55400        10.64900
H           7.51300        21.51500        11.57600
C           8.19600        27.14300         9.23000
O           8.76400        27.91400         8.16000
H           8.67300        28.89100         8.35000
C           8.30600        25.64100         9.43600
O           7.98500        25.25400        10.78100
C           8.23100        23.92200        11.25200
O           7.55900        23.89400        12.51900
C           8.22600        24.35900        13.70200
C           7.61400        25.68400        14.12600
O           8.22400        26.62900        13.23500
H           8.27200        26.24800        12.31100
C           7.97700        26.04900        15.55600
O           7.16700        27.15400        15.98300
H           7.81400        27.42700        16.69500
C           8.19200        21.81000        14.37700
O           7.62000        21.10600        13.26500
H           7.78900        20.12600        13.36600
C           7.83800        23.25800        14.67500
O           8.40100        23.60100        15.94900
C           7.86800        24.83200        16.45900
O           8.62500        24.97900        17.67000
C           7.93200        24.63500        18.87800
C           8.47000        23.35400        19.49500
O           8.17500        22.32300        18.54100
H           8.24500        22.69200        17.61500
C           7.86700        22.93600        20.82600
O           8.80500        22.02900        21.42400
H           8.34200        21.64600        22.22300
C           7.76600        27.17400        19.74700
O           8.19100        27.75300        18.50500
H           7.96900        28.70900        18.69700
C           7.95100        25.68300        19.97900
O           7.19500        25.28800        21.13200
C           7.86400        24.16400        21.72100
O           7.10900        23.89600        22.91100
C           7.89000        24.14100        24.09000
C           7.31100        25.43600        24.63300
O           7.36900        26.56000        23.74300
H           6.95900        26.28200        22.87400
C           7.98200        25.79300        25.94900
O           7.33100        26.95100        26.49000
H           7.63800        27.07200        27.43400
C           8.04600        21.70500        24.89000
O           7.84700        21.12600        23.59200
H           8.01400        20.14100        23.62900
C           7.61000        23.13000        25.19000
O           8.08400        23.42400        26.51200
C           7.66100        24.71600        26.97200
O           8.43400        25.06500        28.13000
C           7.79100        24.75900        29.37600
C           8.06000        23.34500        29.86400
O           7.59300        22.32800        28.96600
H           7.77200        22.66500        28.04200
C           7.69000        22.96500        31.28900
O           8.46500        21.80700        31.63100
H           8.17200        21.44700        32.51600
C           7.76700        27.05000        30.25400
O           7.86100        27.81000        29.04100
H           7.74200        28.76500        29.31400
C           8.39600        25.67700        30.42500
O           7.90900        25.37900        31.74200
C           8.14900        24.05600        32.24300
O           7.31500        23.91900        33.40200
C           7.88400        24.22100        34.68500
C           7.44500        25.61500        35.10400
O           7.67600        26.60600        34.09300
H           7.59100        26.15900        33.20300
C           8.07800        26.02600        36.42400
O           7.61500        27.29500        36.91000
H           8.23900        27.65100        37.60600
C           7.74300        21.92900        35.68600
O           8.00800        21.17400        34.49500
H           7.97000        20.22900        34.82000
C           7.33300        23.38600        35.82900
O           7.97500        23.67600        37.08000
C           7.80800        25.02600        37.53600
O           8.84400        25.14700        38.52200
C           8.22800        24.86600        39.78800
C           8.63700        23.48000        40.26100
O           8.01200        22.46700        39.46000
H           8.13700        22.75100        38.50900
C           8.20000        23.18900        -0.37900
O           9.06200        22.18700         0.17900
H           8.58200        21.64400         0.86800
C           7.89600        27.27500        40.52300
O           8.14200        27.96900        39.29100
H           8.11200        28.95400        39.46100
C           8.49600        25.90700        -1.18900
O           7.97700        25.54700         0.09900
C           8.42700        24.29500         0.63800
O           7.48500        24.14400         1.71000
C           3.89900        20.62800         0.31700
C           4.06800        19.21300        42.88700
O           3.68700        18.13100        42.02400
H           3.91000        18.62700        41.18500
C           3.30000        19.00900         2.10700
O           3.51700        17.65800         2.53800
H           3.38000        17.64000         3.52800
C           4.02200        23.03800         1.27700
O           4.76300        23.62900         0.20000
H           4.55700        24.60700         0.15300
C           4.40400        21.57100         1.39700
O           3.77300        21.29500         2.65500
C           3.90200        19.95000         3.13800
O           3.20200        19.79800         4.38100
C           3.84500        20.17700         5.60600