# freq=raman b3lyp/6-31+g(2df,p) geom=connectivity

500 7000.com

0 1
 O                  8.92200000    7.24600000   12.28800000
 C                  9.74100000    7.37200000   13.45900000
 C                  9.53200000    8.76200000   14.03600000
 O                  9.75900000    9.87000000   13.15200000
 H                  9.12300000    9.67400000   12.40600000
 C                 10.23200000    8.88900000   15.37900000
 O                  9.90200000   10.07400000   16.11800000
 H                  9.66900000   10.75900000   15.42700000
 C                  9.87800000    4.89600000   14.03900000
 O                  9.66900000    3.77300000   14.90800000
 H                  9.65300000    2.91100000   14.40100000
 C                  9.25700000    6.24600000   14.35800000
 O                  9.89000000    6.49000000   15.62300000
 C                  9.84600000    7.75000000   16.30800000
 O                 10.78100000    7.65500000   17.39300000
 C                 10.16300000    7.08200000   18.55400000
 C                 10.17400000    5.58300000   18.81000000
 O                  9.43200000    4.90100000   17.78800000
 H                  9.78300000    5.04700000   16.86400000
 C                  9.44700000    5.31700000   20.11700000
 O                  8.64200000    4.14800000   20.33200000
 H                  8.25100000    3.95700000   19.43200000
 C                 10.83200000    9.22400000   19.69300000
 O                 11.42600000   10.18200000   20.58100000
 H                 11.48500000   11.09500000   20.17900000
 C                 10.78500000    7.70800000   19.79200000
 O                 10.18900000    7.27100000   21.02200000
 C                 10.31800000    5.85800000   21.23900000
 O                  9.60900000    5.69300000   22.47600000
 H                 10.23788817    5.59709998   23.19495956
 H                 11.32635641    5.50008304   21.24257916
 H                  8.67905053    6.06090157   20.07499911
 H                 11.17779139    5.21532040   18.85598424
 H                  9.13601130    7.38151324   18.53195403
 H                 11.80194363    7.37619482   19.81711944
 H                 10.35009775    9.63892436   18.83247225
 H                 11.31390225    8.80907564   20.55352775
 H                  9.48239659    7.16261133   11.51301484
 H                 10.93511959    5.04565121   13.96827031
 H                  9.52856748    4.61122921   13.06858642
 H                  8.19085360    6.20360956   14.43821781
 H                 10.77052676    7.22680951   13.20622664
 H                  8.48761797    8.80857639   14.26402809
 H                 11.28989574    8.86350294   15.22054970
 H                  8.86190840    7.91664604   16.69360707

 1 2 1.0 38 1.0
 2 3 1.0 12 1.0 42 1.0
 3 4 1.0 6 1.0 43 1.0
 4 5 1.0
 5
 6 7 1.0 14 1.0 44 1.0
 7 8 1.0
 8
 9 10 1.0 12 1.0 39 1.0 40 1.0
 10 11 1.0
 11
 12 13 1.0 41 1.0
 13 14 1.0
 14 15 1.0 45 1.0
 15 16 1.0
 16 17 1.0 26 1.0 34 1.0
 17 18 1.0 20 1.0 33 1.0
 18 19 1.0
 19
 20 21 1.0 28 1.0 32 1.0
 21 22 1.0
 22
 23 24 1.0 26 1.0 36 1.0 37 1.0
 24 25 1.0
 25
 26 27 1.0 35 1.0
 27 28 1.0
 28 29 1.0 31 1.0
 29 30 1.0
 30
 31
 32
 33
 34
 35
 36
 37
 38
 39
 40
 41
 42
 43
 44
 45

