# freq=raman b3lyp/6-31+g(2d,p) geom=connectivity

450 9892/9892.com

0 1
C          11.29300         7.77200         2.19800
C          11.49700         9.22300         2.60100
O          12.30900         9.94400         1.66300
H          12.06800         9.59100         0.75900
C          12.04900         9.39300         4.00700
O          12.09100        10.76100         4.43600
H          12.63500        11.32100         3.81100
C          10.05400         5.66800         3.13500
O          10.92100         4.52600         3.20500
H          10.46500         3.64600         3.07100
C          10.55100         7.09000         3.33600
O          11.25400         7.18300         4.58300
C          11.26200         8.55500         5.00200
O          12.06700         8.37400         6.17500
C          11.36800         8.35800         7.42800
C          11.04400         6.99400         8.01500
O          10.29300         6.24500         7.04800
H          10.72200         6.24300         6.14500
C          10.29300         7.12400         9.33000
O           9.81800         5.83300         9.73900
H           8.85800         6.10400         9.80600
C          12.89800        10.27900         8.01400
O          13.84600        10.87400         8.91200
H          14.72900        10.40500         8.93600
C          12.42100         8.88500         8.39000
O          11.89900         8.90700         9.72600
C          11.32600         7.71200        10.27800
O          10.72600         8.10900        11.52000
C          11.53800         8.02400        12.70000
C          11.91700         9.32900        13.38200
O          12.62400        10.07800        12.38300
H          12.26400        10.18700        11.45600
C          12.66100         9.23400        14.70400
O          13.09600        10.39900        15.42000
H          13.43300        11.14100        14.84000
C          10.94700         5.69500        13.39700
O          10.02700         4.80600        14.04700
H           9.94700         3.90600        13.61900
C          10.85400         7.16900        13.75400
O          11.33400         7.26300        15.10300
C          11.61900         8.58000        15.59600
O          12.15500         8.33300        16.90400
C          11.29000         8.26500        18.04700
C          10.80800         6.86800        18.40600
O          10.15000         6.15700        17.34800
H          10.47000         6.66700        16.55000
C          10.00100         7.06200        19.67900
O           9.27900         5.82600        19.78800
H           8.35900         5.89800        19.40400
C          12.33300        10.38000        19.04600
O          13.25700        10.75500        20.07800
H          14.22000        10.72200        19.81100
C          12.03000         8.90000        19.21300
O          11.30800         8.85000        20.45200
C          10.96900         7.49300        20.76900
O          10.43700         7.64200        22.09400
C          11.30800         7.62700        23.23400
C          11.70700         8.97500        23.81200
O          12.54400         9.58800        22.82100
H          12.08900         9.51400        21.93400
C          12.45000         8.96500        25.13800
O          12.41200        10.28500        25.69800
H          12.56200        10.93000        24.94900
C          10.30300         5.26700        23.83400
O           9.99100         4.43300        24.96000
H           9.54500         3.67900        24.47700
C          10.90100         6.59400        24.27200
O          11.86700         6.61300        25.33300
C          11.82600         7.88100        26.00300
O          12.42400         7.94500        27.30500
C          11.55000         8.06400        28.43700
C          10.88400         6.81700        28.99700
O           9.98100         6.38500        27.96900
H          10.48400         5.98300        27.20400
C          10.09800         7.13700        30.25800
O           9.30600         6.05600        30.77300
H           8.41500         6.20900        30.34500
C          12.69900        10.08400        29.30500
O          13.54800        10.82500        30.19300
H          14.45500        10.41600        30.08700
C          12.49100         8.59200        29.50700
O          11.71600         8.76000        30.70300
C          11.18100         7.54300        31.24400
O          10.77400         7.91500        32.56900
C          11.49300         7.76900        33.80200
C          11.81500         9.20100        34.19500
O          12.66100         9.99000        33.34600
H          12.53000         9.80100        32.37300
C          12.23200         9.32600        35.65200
O          12.26600        10.66600        36.16400
H          12.61000        11.16900        35.37100
C          10.46300         5.55700        34.35000
O           9.68500         4.71700        35.21600
H           9.54500         3.82400        34.78900
C          10.58700         7.01500        34.76100
O          10.96100         7.22000        36.13100
C          11.30200         8.54500        36.56600
O          12.06200         7.97200        37.63900
C          11.41100         8.17700        38.90100
C          10.50400         7.02100        39.28900
O           9.37300         6.88400        38.41600
H           9.59400         6.73100        37.45300
C           9.88700         7.26200        40.65700
O           8.87700         6.27700        40.91700
H           8.26200         6.32300        40.13000
C          12.78000         9.94300        39.86400
O          13.63000        10.61600        40.80400
H          14.50400        10.13400        40.86300
C          12.31900         8.50900        40.07300
O          11.68700         8.57100        41.36000
C          11.00900         7.34700        41.67900
O          10.39700         7.70400        42.92600
C           5.55300         3.77500         0.41100
C           5.58600         2.28000        42.78000
O           5.18900         1.38000        41.73500
H           5.72500         1.69900        40.95400
C           4.78200         2.25600         2.24600
O           4.82800         0.91200         2.74500
H           3.94200         0.55200         2.45400
C           6.29100         6.20800         1.17200
O           6.71900         7.11200         2.20100
H           6.30500         8.01400         2.07700
C           6.15000         4.71900         1.44100
O           5.29700         4.57000         2.58500
C           5.44800         3.26600         3.16600
O           4.53900         3.52900         4.24400
C           5.19900         3.60200         5.51600
C           5.24100         4.98400         6.15000
O           5.84600         5.84900         5.17800
H           5.37700         5.62300         4.32400
C           5.88700         5.16700         7.51300
O           5.42000         6.41800         8.03900
H           5.73500         7.08200         7.36100
C           4.62000         1.20600         6.04000
O           5.74900         0.32200         5.98600
H           5.51000        -0.53400         5.52800
C           4.59800         2.64400         6.53200
O           5.27500         2.80900         7.78600
C           5.30100         4.09700         8.41900
O           6.19800         3.93700         9.52800
C           5.58200         3.94900        10.82500
C           5.64000         2.48300        11.22400
O           4.91700         1.68300        10.27700
H           5.26000         1.82300         9.34800
C           5.05100         2.34700        12.61800
O           5.15500         0.99900        13.09900
H           4.96800         0.32700        12.38200
C           6.50500         6.10000        11.53200
O           7.15300         6.97800        12.46400
H           6.75600         7.89500        12.43100
C           6.40100         4.63100        11.90800
O           5.71100         4.65300        13.16600
C           5.54400         3.32200        13.67500
O           4.57600         3.53900        14.71100
C           5.15400         3.77500        16.00300
C           5.79800         5.08300        16.43500
O           6.66000         5.59600        15.41000
H           6.25100         5.56800        14.49800
C           6.62800         4.92000        17.69800
O           7.13800         6.15700        18.21700
H           7.42000         6.71700        17.43800
C           3.76800         1.82300        16.81000
O           4.55400         0.90700        16.03200
H           4.74600         1.21400        15.10000
C           4.30000         3.21100        17.12700
O           5.08300         3.05000        18.31900
C           5.71500         4.27200        18.72700
O           6.44400         4.07400        19.94700
C           5.67500         4.15000        21.15700
C           5.61800         2.84700        21.93700
O           5.47400         1.85200        20.91300
H           6.01400         2.21700        20.15500
C           4.66900         2.85400        23.12400
O           4.24800         1.58000        23.63100
H           3.92500         1.00700        22.87700
C           6.54600         6.52600        21.95400
O           7.27000         7.20700        22.98900
H           6.92800         8.14300        23.08100
C           6.38300         5.03000        22.17300
O           5.68500         4.99800        23.42700
C           5.47400         3.73200        24.06900
O           4.67600         4.00500        25.23000
C           5.37800         3.91900        26.47900
C           5.82700         5.29800        26.93500
O           6.50300         6.00300        25.88400
H           6.05200         5.83400        25.00800
C           6.69300         5.17000        28.17800
O           7.14900         6.43100        28.68900
H           7.77800         6.83600        28.02500
C           3.96600         1.88400        27.28300
O           4.68600         0.73000        26.82800
H           4.32500         0.28600        26.00700
C           4.58800         3.23800        27.58500
O           5.34700         3.23000        28.80200
C           5.82800         4.51000        29.23900
O           6.47900         4.36800        30.51000
C           5.63700         4.40200        31.67100
C           5.26500         2.97200        32.02800
O           4.41300         2.37700        31.03900
H           4.76600         2.53500        30.11700
C           4.49600         2.79500        33.32700
O           4.36900         1.49600        33.92200
H           3.88800         0.89200        33.28700
C           6.88200         6.46700        32.56000
O           6.09000         7.48000        31.92200
H           6.40700         8.39200        32.18300
C           6.40900         5.04500        32.81200
O           5.48600         4.91500        33.90300
C           5.26500         3.57900        34.37800
O           4.54700         3.86100        35.58800
C           5.15300         3.68400        36.87600
C           5.41600         5.04500        37.50100
O           6.11700         5.91300        36.59800
H           5.70500         5.79500        35.69500
C           6.24700         4.99800        38.77300
O           6.17100         6.27700        39.42000
H           6.48900         6.99000        38.79600
C           4.16800         1.44800        37.50800
O           5.15500         0.43500        37.26200
H           4.73300        -0.22400        36.64000
C           4.54600         2.84000        37.98500
O           5.30500         2.75800        39.20000
C           5.52200         4.07200        39.73500
O           6.21500         3.96900        40.98800
C          14.29500        15.56500         2.79300
C          14.74700        16.92400         3.30300
O          15.48500        17.64300         2.30500
H          15.12900        17.37400         1.41000
C          15.46600        16.70900         4.62500
O          15.91500        17.90900         5.27000
H          16.65900        18.32600         4.74800
C          12.77800        13.68100         3.38600
O          13.60600        12.71800         2.71800
H          13.39100        12.75400         1.74200
C          13.46100        14.93900         3.89900
O          14.32600        14.65300         5.00700
C          14.59300        15.93300         5.59800
O          15.20800        15.64900         6.86400
C          14.41600        15.70600         8.05900
C          14.18300        14.33500         8.67200
O          13.35900        13.77600         7.63800
H          13.76400        13.93500         6.73800
C          13.41500        14.19000         9.97600
O          13.45300        12.85800        10.50900
H          13.48900        12.19100         9.76400
C          15.60400        17.84800         8.89500
O          14.63900        18.83000         8.48800
H          15.14700        19.68800         8.41500
C          15.09800        16.44700         9.19700
O          14.21700        16.44500        10.33000
C          14.11000        15.14600        10.93100
O          13.48600        15.55500        12.15700
C          14.14300        15.53000        13.43300
C          14.63500        16.90900        13.84300
O          15.16000        17.66400        12.74100
H          14.65600        17.38100        11.92500
C          15.46400        16.71400        15.10200
O          16.35700        17.80800        15.35600
H          17.12000        17.87000        14.71200
C          12.70600        13.52900        14.10300
O          13.63500        12.46900        13.83200
H          13.66700        12.45700        12.83300
C          13.20500        14.92000        14.46100
O          13.92800        14.93000        15.70000
C          14.49300        16.17400        16.13900
O          15.13600        15.78800        17.36200
C          14.41400        15.89900        18.59700
C          14.21600        14.53200        19.23000
O          13.41000        13.78100        18.31000
H          13.82800        13.93400        17.41400
C          13.62700        14.60800        20.62900
O          13.94100        13.38400        21.31000
H          13.70600        12.67400        20.64700
C          15.64700        18.05100        18.95200
O          14.57600        18.98300        18.74300
H          14.98300        19.58600        18.05600
C          15.13600        16.77800        19.60600
O          14.32500        16.95100        20.77700
C          14.32400        15.68200        21.44700
O          13.40100        15.89600        22.52400
C          14.12900        15.67400        23.74100
C          14.58800        17.00700        24.31000
O          15.31700        17.92900        23.48800
H          14.77200        17.94800        22.65000
C          15.10300        16.84500        25.73000
O          15.03900        18.11000        26.40500
H          15.17300        18.90900        25.81800
C          12.37900        13.90200        24.17700
O          12.95100        12.62100        23.87400
H          13.53700        12.88000        23.10700
C          13.22300        15.01900        24.77000
O          14.01300        14.68600        25.92000
C          14.24300        15.93300        26.59000
O          15.05900        15.36400        27.62500
C          14.56000        15.62500        28.94500
C          14.28900        14.27500        29.58900
O          13.76400        13.31700        28.65900
H          14.00600        13.64100        27.74400
C          13.45700        14.32500        30.86000
O          13.74900        13.08100        31.51400
H          13.35200        12.42900        30.86800
C          15.80800        17.82600        29.45500
O          15.06700        18.93900        28.93500
H          14.68900        18.61400        28.06800
C          15.23400        16.51800        29.97400
O          14.18600        16.62600        30.94900
C          14.07800        15.41700        31.71500
O          13.28200        15.78900        32.84900
C          13.96900        15.70300        34.10600
C          14.10200        17.08500        34.72700
O          14.43000        18.13100        33.80100
H          13.94300        18.14400        32.92800
C          14.89000        17.06500        36.02700
O          14.71800        18.30600        36.72600
H          14.80800        19.02800        36.04000
C          12.35700        13.78200        34.50400
O          13.14300        12.62200        34.19400
H          13.61900        12.74400        33.32400
C          13.10800        14.95500        35.11100
O          13.94700        14.76300        36.26000
C          14.13800        16.04800        36.86900
O          15.01600        15.67700        37.94200
C          14.37700        15.71000        39.22600
C          14.06600        14.33600        39.79700
O          13.02500        13.84700        38.93900
H          13.41500        13.87400        38.01800
C          13.59900        14.24800        41.24100
O          13.65500        12.93800        41.82300
H          13.58500        12.19600        41.15500
C          15.87800        17.70200        39.94000
O          14.86100        18.56200        39.40700
H          14.69100        18.28000        38.46300
C          15.26800        16.35100        40.27800
O          14.58100        16.47900        41.53100
C          14.41600        15.18100        42.12100
O          13.72300        15.55300        43.32100
C           8.20300        11.91700        41.35700
C           7.63700        10.57400        41.78700
O           6.83400        10.01900        40.73500
H           7.34500        10.21300        39.89700
C           6.84000        10.74100         1.25800
O           6.07200         9.66900         1.82500
H           5.12500         9.91700         1.61900
C           9.49500        14.00700         0.23800
O           8.69900        15.19100         0.08200
H           9.26700        15.93600        -0.26600
C           8.95900        12.64700         0.65400
O           8.14900        12.64900         1.83800
C           7.81200        11.32300         2.27100
O           7.23300        11.52500         3.56800
C           8.01800        11.43400         4.76600
C           8.29100        12.81900         5.32900
O           9.01900        13.50700         4.30200
H           8.39700        13.42300         3.52300
C           9.13300        12.77200         6.59400
O           9.46100        14.08800         7.06200
H          10.02900        14.69000         6.50000
C           6.90400         9.24500         5.32100
O           7.14700         8.21500         6.29000
H           6.73600         7.41400         5.85700
C           7.34200        10.60300         5.84400
O           8.14900        10.54600         7.03000
C           8.46100        11.83300         7.58200
O           9.21500        11.65600         8.79100
C           8.30800        11.54500         9.89800
C           7.70900        10.21000        10.30900
O           6.92000         9.60800         9.27300
H           7.25800         9.66600         8.33400
C           6.85400        10.30500        11.56200
O           5.93300         9.25800        11.90100
H           5.19000         9.72000        12.38600
C           9.38100        13.49400        10.74100
O           8.39900        14.53300        10.61600
H           8.90500        15.33100        10.28800
C           8.97400        12.08800        11.15100
O           8.29000        12.04600        12.41200
C           7.87700        10.68800        12.61900
O           7.33500        10.78700        13.94400
C           8.00000        11.07700        15.18300
C           8.10700        12.52600        15.62900
O           8.63900        13.43700        14.65500
H           8.45600        13.02100        13.76400
C           8.74600        12.73600        16.99200
O           8.59500        14.11000        17.37600
H           9.22300        14.73500        16.91200
C           7.19200         8.87000        16.22500
O           8.21100         7.86400        16.13500
H           7.84100         7.14000        15.55300
C           7.32600        10.37900        16.35300
O           8.11600        10.52500        17.54200
C           8.26600        11.83200        18.11600
O           8.92300        11.70500        19.38500
C           8.08800        12.00600        20.51300
C           7.55900        10.70100        21.08600
O           6.70300         9.95300        20.21000
H           7.35800         9.43100        19.66400
C           6.88500        10.78400        22.44600
O           6.34100         9.56400        22.97000
H           5.55300         9.27600        22.42700
C           9.59100        13.77400        20.98800
O           8.71000        14.89800        20.84800
H           9.09000        15.68900        20.36900
C           8.89700        12.59800        21.65500
O           8.24700        12.77400        22.92200
C           7.85200        11.47700        23.39300
O           7.28200        11.97800        24.61100
C           8.13100        11.54900        25.68500
C           8.83500        12.75600        26.28400
O           9.11500        13.79300        25.33200
H           8.72300        13.76400        24.41300
C           9.82500        12.54300        27.41700
O          10.65700        13.64500        27.80900
H          11.36600        13.53200        28.50400
C           6.81800         9.60100        26.52200
O           7.71000         8.48700        26.36700
H           7.24700         7.75000        25.87300
C           7.42300        10.94600        26.88800
O           8.29700        10.80300        28.01700
C           8.91300        12.00300        28.50700
O           9.51900        11.83100        29.79600
C           8.60200        12.05500        30.87800
C           7.80800        10.84200        31.33500
O           7.01500        10.14700        30.36200
H           7.49400         9.79500        29.55800
C           6.98500        11.24900        32.54600
O           6.26700        10.10100        33.02200
H           5.35700        10.41800        33.29000
C           9.81800        14.05200        31.66700
O           8.70800        14.93000        31.43200
H           8.96300        15.86200        31.17500
C           9.44200        12.62000        32.01200
O           8.93300        12.54800        33.35200
C           7.96200        11.54200        33.67300
O           7.26200        12.01700        34.83200
C           7.99100        11.72300        36.03200
C           8.62300        12.96900        36.63300
O           9.30200        13.72100        35.61700
H           9.22500        13.20600        34.76300
C           9.38900        12.80000        37.93500
O          10.16600        13.81300        38.59000
H          11.04000        13.35400        38.74900
C           6.55000         9.91300        36.81100
O           7.38800         8.74900        36.85200
H           6.74300         7.98500        36.81900
C           7.20300        11.22000        37.23100
O           7.97600        10.94400        38.40800
C           8.50600        12.14600        38.98600
O           9.09400        11.77600        40.24100
C          16.48600        23.14300         2.44400
C          17.18800        24.39200         2.95000
O          18.19900        24.97900         2.11700
H          18.11000        24.86300         1.12800
C          17.92600        24.33100         4.27700
O          18.61200        25.53500         4.64900
H          19.38200        25.60500         4.01500
C          15.10100        21.19300         3.08900
O          16.05300        20.16400         2.77900
H          15.60400        19.30000         2.55100
C          15.69100        22.50700         3.57300
O          16.41100        22.54200         4.81400
C          16.87600        23.82700         5.25300
O          17.62800        23.64600         6.46100
C          16.80800        23.79000         7.62900
C          16.37800        22.41400         8.11100
O          15.46700        21.71800         7.24700
H          15.84700        21.78000         6.32400
C          15.84500        22.34300         9.53300
O          15.98600        20.98000         9.96000
H          16.03300        20.93600        10.95800
C          17.82400        25.97900         8.20600
O          18.46800        26.90100         9.09800
H          18.71000        27.77000         8.66700
C          17.50600        24.58500         8.72000
O          16.69500        24.57900         9.90400
C          16.57300        23.27400        10.48900
O          15.73400        23.59300        11.60800
C          16.44500        23.46200        12.84800
C          17.05900        24.74300        13.39000
O          17.77200        25.52000        12.41600
H          17.39700        25.42000        11.49400
C          17.81500        24.48100        14.68200
O          18.52400        25.65000        15.11900
H          19.26600        25.83000        14.47400
C          15.28700        21.49000        13.59700
O          16.35000        20.80900        12.91500
H          16.31800        19.84800        13.19200
C          15.60000        22.92400        13.99100
O          16.23000        22.84700        15.27700
C          16.78900        24.08900        15.73200
O          17.22300        23.71000        17.04600
C          16.41600        23.71800        18.23300
C          16.24300        22.28500        18.70900
O          15.70600        21.44300        17.67800
H          15.98600        21.87100        16.81900
C          15.55900        22.25400        20.06600
O          15.44100        20.92400        20.59300
H          14.82600        20.34000        20.06400
C          17.43300        25.75000        18.68800
O          18.21700        26.58900        19.54900
H          18.30200        27.36600        18.92400
C          17.27900        24.36800        19.30200
O          16.80600        24.42000        20.65600
C          16.33500        23.12100        21.04300
O          15.46100        23.41000        22.14400
C          16.27200        23.22000        23.31300
C          16.86000        24.49200        23.90200
O          17.49500        25.45300        23.04500
H          17.29100        25.31700        22.07600
C          17.74200        24.14200        25.08800
O          18.63900        25.19900        25.45900
H          18.80300        25.68300        24.60000
C          14.93100        21.19400        23.82200
O          14.28000        20.30800        24.74500
H          13.46600        20.76100        25.10900
C          15.55000        22.45300        24.40800
O          16.38500        22.31700        25.56600
C          16.78800        23.57500        26.12700
O          17.45000        23.54100        27.39900
C          16.59300        23.56500        28.54900
C          16.00200        22.22700        28.96400
O          14.97000        21.79700        28.06400
H          15.42700        21.62400        27.19200
C          15.49700        22.22800        30.39700
O          15.23700        20.86400        30.75900
H          14.91600        20.23800        30.04800
C          17.76200        25.79000        29.29400
O          18.39700        26.58800        30.30400
H          18.61300        27.44200        29.83100
C          17.48900        24.31200        29.52300
O          16.82900        24.25000        30.79500
C          16.53800        22.92400        31.25900
O          15.85700        23.26600        32.47600
C          16.56700        23.22400        33.72300
C          17.17800        24.56800        34.08500
O          18.16400        24.87600        33.08900
H          17.86100        24.49100        32.21700
C          17.81900        24.58800        35.46200
O          18.05100        25.96000        35.81400
H          18.75600        26.31200        35.19800
C          15.25700        21.38600        34.48500
O          14.49100        20.61400        35.42200
H          13.54200        20.90000        35.55400
C          15.62700        22.81500        34.84500
O          16.36300        22.69300        36.07100
C          16.82000        24.00100        36.44600
O          17.40900        23.74500        37.72900
C          16.56800        23.75400        38.89200
C          16.41200        22.30600        39.32700
O          15.43700        21.70900        38.46000
H          15.68500        21.80600        37.49600
C          15.86300        22.15700        40.73600
O          15.69000        20.81000        41.20200
H          15.26800        20.22400        40.51100
C          17.18000        25.93600        39.65100
O          17.69500        26.98800        40.48000
H          17.49500        27.80000        39.93300
C          17.25000        24.47000        40.04500
O          16.50800        24.37800        41.27000
C          16.61200        23.02400        41.73500
O          15.89900        23.11200        42.97700
C          10.98100        19.64600        41.59200
C          10.91400        18.20700        42.07500
O          10.22700        17.40900        41.10000
H          10.33800        17.63200        40.13200
C          10.18900        18.15500         1.58300
O          10.28500        16.82600         2.11400
H           9.43500        16.37100         1.84800
C          12.61300        21.67800         0.32800
O          11.82100        22.86800         0.45800
H          12.50400        23.57400         0.64400
C          11.82300        20.45700         0.77000
O          11.21200        20.37300         2.06700
C          11.02800        19.02000         2.50900
O          10.33300        19.16200         3.75700
C          11.04600        19.08800         5.00000