# freq=raman b3lyp/6-31+g(d,p) geom=connectivity

300 10000.com

0 1
 O                  7.43300000    7.79300000   12.36600000
 C                  8.02100000    8.00500000   13.65800000
 C                  7.58200000    9.40800000   14.04600000
 O                  8.09400000   10.43100000   13.18000000
 H                  8.17200000   10.09700000   12.24100000
 C                  8.04300000    9.73300000   15.45800000
 O                  7.42700000   10.91800000   15.98200000
 H                  7.89200000   11.13000000   16.84200000
 C                  8.15500000    5.61100000   14.34300000
 O                  7.65400000    4.78600000   13.28100000
 H                  8.10500000    3.90900000   13.44200000
 C                  7.56600000    6.97200000   14.67600000
 O                  8.05400000    7.23900000   15.99800000
 C                  7.76000000    8.58200000   16.40900000
 O                  8.63900000    8.67500000   17.54000000
 C                  8.05600000    8.33600000   18.80600000
 C                  8.55600000    7.01500000   19.37000000
 O                  8.58100000    5.92500000   18.43700000
 H                  8.83100000    6.36000000   17.57200000
 C                  7.98900000    6.60100000   20.71800000
 O                  8.34800000    5.41800000   21.44500000
 H                  7.82400000    5.48700000   22.29400000
 C                  7.82900000   10.73500000   19.62800000
 O                  8.27000000   11.56800000   18.54600000
 H                  8.42300000   12.48600000   18.91400000
 C                  8.37400000    9.34200000   19.90000000
 O                  7.56300000    9.00700000   21.03600000
 C                  8.08500000    7.81100000   21.63300000
 O                  7.26300000    7.61900000   22.79400000
 H                  7.82175084    7.49163198   23.56417848
 H                  8.12755536    7.68569209   11.71202916
 H                  9.08724425    7.97599518   13.57325384
 H                  6.51300207    9.44676748   14.02069165
 H                  9.10088451    9.89161910   15.43309348
 H                  6.74469036    8.63763605   16.74209303
 H                  6.49759580    6.91444811   14.68601223
 H                  8.09453917    5.02623029   15.23702957
 H                  9.19358163    5.77010949   14.14068248
 H                  7.98630803   11.29871163   20.52375855
 H                  6.77117857   10.62537629   19.51011674
 H                  9.41515904    9.35873067   20.14618680
 H                  6.99387673    8.27961812   18.68931567
 H                  9.58948649    7.20261257   19.57397842
 H                  6.94268737    6.47823746   20.53075885
 H                  9.10178352    7.96520032   21.92842093

 1 2 1.0 31 1.0
 2 3 1.0 12 1.0 32 1.0
 3 4 1.0 6 1.0 33 1.0
 4 5 1.0
 5
 6 7 1.0 14 1.0 34 1.0
 7 8 1.0
 8
 9 10 1.0 12 1.0 37 1.0 38 1.0
 10 11 1.0
 11
 12 13 1.0 36 1.0
 13 14 1.0
 14 15 1.0 35 1.0
 15 16 1.0
 16 17 1.0 26 1.0 42 1.0
 17 18 1.0 20 1.0 43 1.0
 18 19 1.0
 19
 20 21 1.0 28 1.0 44 1.0
 21 22 1.0
 22
 23 24 1.0 26 1.0 39 1.0 40 1.0
 24 25 1.0
 25
 26 27 1.0 41 1.0
 27 28 1.0
 28 29 1.0 45 1.0
 29 30 1.0
 30
 31
 32
 33
 34
 35
 36
 37
 38
 39
 40
 41
 42
 43
 44
 45

