# freq=raman b3lyp/6-31+g(2d,p) geom=connectivity
300 8000.com
300 8000.com
C           8.17800         8.06900         3.29000
0 1
O           8.04900        10.39700         2.61400
H           7.61400        10.07100         1.77400
C           8.57800         9.82600         5.02400
O           8.02900        11.04600         5.54300
H           8.36800        11.29600         6.45000
C           8.29800         5.57600         4.04900
O           7.68600         4.90500         2.93800
H           7.83500         3.92200         3.04200
C           7.91500         7.01500         4.35400
O           8.52800         7.45200         5.57500
C           8.15600         8.76300         6.02500
O           8.99700         8.84100         7.18500
C           8.36500         8.65600         8.46000
C           8.87000         7.33600         9.02000
O           8.74300         6.26100         8.07800
H           8.94900         6.48700         7.12600
C           8.37700         6.97600        10.41200
O           8.88500         5.71200        10.86600
H           8.36200         5.47800        11.68500
C           8.03100        11.08800         9.09400
O           8.79100        11.63600         8.00600
H           8.53800        12.60200         8.06100
C           8.61000         9.74100         9.49600
O           8.21100         9.45300        10.84400
C           8.66200         8.17100        11.30700
O           7.81200         7.90300        12.43200
C           8.19600         8.19600        13.78400
C           7.65400         9.51000        14.32200
O           8.13700        10.56500        13.47700
H           7.86100        10.32200        12.54700
C           8.06800         9.80200        15.75400
O           7.41200        10.94300        16.32500
H           7.93900        11.19500        17.13700
C           8.36000         5.72200        14.54800
O           8.09200         4.96700        13.35800
H           8.25200         3.99600        13.53500
C           7.82100         7.12200        14.79200
O           8.34100         7.45200        16.08900
C           7.84500         8.64400        16.71400
O           8.64200         8.78500        17.89900
C           8.08700         8.38800        19.16200
C           8.71600         7.06700        19.57500
O           8.54300         6.11900        18.51300
H           8.65300         6.66400        17.68200
C           8.19600         6.63000        20.93500
O           8.69100         5.39200        21.46500
H           8.53500         5.19500        22.43300
C           7.98800        10.87900        19.94000
O           8.32700        11.62300        18.76000
H           8.44400        12.60100        18.93100
C           8.47900         9.45900        20.16700
O           8.05500         9.04700        21.47500
C           8.39900         7.73900        21.95500
O           7.58500         7.50100        23.11300
C           8.13400         7.89300        24.37900
C           7.45800         9.17700        24.83300
O           7.73100        10.23400        23.90200
H           7.66600         9.76300        23.02200
C           7.93700         9.58800        26.21600
O           7.14800        10.68700        26.69600
H           7.39900        10.80700        27.65700
C           8.49800         5.46500        25.15300
O           8.00100         4.74400        24.01600
H           8.15200         3.78900        24.27500
C           7.92600         6.84000        25.45600
O           8.53000         7.22400        26.69900
C           7.91300         8.42300        27.19200
O           8.76300         8.73700        28.30500
C           8.11900         8.34700        29.52700
C           8.56700         6.99900        30.06700
O           8.24600         5.99400        29.09300
H           8.40500         6.42900        28.20600
C           7.94900         6.55900        31.38400
O           8.60900         5.40200        31.91800
H           8.36200         5.21900        32.87000
C           7.91400        10.79500        30.38100
O           7.99900        11.38100        29.07400
H           8.22900        12.34800        29.18100
C           8.45000         9.38700        30.58500
O           7.75200         8.94300        31.75700
C           8.21500         7.71400        32.33500
O           7.42200         7.58600        33.52400
C           8.14900         7.75700        34.75000
C           7.50400         8.97900        35.38300
O           7.35200        10.08500        34.48200
H           7.17600         9.65600        33.59600
C           8.11900         9.35500        36.72200
O           7.82300        10.69500        37.14000
H           8.06900        10.92100        38.08200
C           8.14600         5.24000        35.44300
O           7.54000         4.63300        34.29200
H           7.69900         3.65000        34.38500
C           7.75900         6.67800        35.74800
O           8.35400         6.88500        37.03700
C           7.90400         8.12800        37.59400
O           8.64800         8.29400        38.80900
C           7.98500         8.14600        40.07300
C           8.36900         6.79600        40.65800
O           7.84900         5.70300        39.88600
H           8.16000         5.89900        38.95600
C           7.82500         6.52600        -0.01400
O           8.42400         5.30300         0.43800
H           8.20000         5.20500         1.40700
C           7.85500        10.66400        40.72100
O           8.36300        11.27800        39.52800
H           8.14200        12.25000        39.60800
C           8.34400         9.26600        -1.03400
O           7.92300         8.95700         0.30300
C           8.27100         7.68300         0.86400
O           7.50700         7.69200         2.07900
C           3.87500         4.07000         0.38300
C           4.14700         2.64100        42.90900
O           3.78300         1.66100        41.92600
H           3.85900         2.12000        41.04100
C           3.38700         2.32900         2.12400
O           3.50300         0.96500         2.55700
H           3.55800         0.85100         3.54900
C           3.96400         6.41200         1.30200
O           4.51300         7.19100         0.22900
H           4.46900         8.14200         0.53400
C           4.32700         4.95500         1.53300
O           3.68400         4.64100         2.77700
C           4.01100         3.28700         3.12500
O           3.50700         3.19200         4.46500
C           4.22900         3.53300         5.65800
C           3.78900         4.88600         6.19300
O           3.88700         5.94600         5.23100
H           3.62100         5.69500         4.30000
C           4.48800         5.37400         7.45000
O           4.05900         6.64300         7.96600
H           4.42100         6.77800         8.88700
C           4.48700         1.20100         6.40000
O           3.81300         0.59500         5.28800
H           4.12300        -0.34300         5.13200
C           3.94000         2.56300         6.79200
O           4.60200         2.96500         8.00000
C           4.15900         4.26100         8.43100
O           4.82500         4.31000         9.70100
C           4.08900         4.14800        10.92200
C           4.22500         2.73300        11.46100
O           3.84000         1.67000        10.57800
H           4.27000         1.84100         9.69200
C           3.80200         2.49000        12.90000
O           4.16500         1.15900        13.29300
H           4.06400         1.02000        14.27800
C           4.49900         6.59300        11.87200
O           4.57500         7.32700        10.64100
H           4.09800         8.19000        10.80400
C           4.64800         5.08500        11.98100
O           4.12800         4.85800        13.29900
C           4.35200         3.54900        13.84200
O           3.61500         3.58600        15.07300
C           4.28300         3.91300        16.30000
C           3.65000         5.21000        16.77900
O           3.60600         6.19200        15.73400
H           3.63300         5.66100        14.88800
C           4.46700         5.62700        17.99100
O           4.20600         6.94900        18.48400
H           4.56800         6.98300        19.41600
C           4.44900         1.41200        16.98500
O           4.00000         0.75500        15.79100
H           4.27300        -0.20400        15.86700
C           4.02200         2.82900        17.33200
O           4.71200         3.26000        18.51500
C           4.21900         4.51700        19.00000
O           4.96300         4.58800        20.22500
C           4.26200         4.18500        21.41000
C           4.60700         2.79400        21.91800
O           4.63200         1.85500        20.83400
H           4.91400         2.38400        20.03400
C           3.84200         2.52900        23.20400
O           3.91000         1.15200        23.59900
H           3.57100         1.24700        24.53500
C           4.10100         6.66000        22.11900
O           4.49700         7.51100        21.03400
H           3.87200         8.28100        20.90400
C           4.58700         5.25600        22.43800
O           4.04700         4.93000        23.72700
C           4.27600         3.59400        24.19800
O           3.47400         3.59200        25.38800
C           4.24600         3.87000        26.56600
C           3.90500         5.25200        27.10100
O           4.41700         6.23000        26.18400
H           4.33100         5.92600        25.23500
C           4.43000         5.54600        28.49600
O           3.99100         6.83900        28.93900
H           3.94400         6.72300        29.93100
C           4.16100         1.43100        27.34600
O           3.59200         0.66600        26.27400
H           3.71300        -0.32000        26.39300
C           3.75700         2.87400        27.60400
O           4.31900         3.13300        28.89900
C           3.95900         4.42500        29.40800
O           4.53100         4.54900        30.71800
C           3.80300         4.20500        31.90700
C           4.35600         2.84800        32.30900
O           3.93300         1.86100        31.35700
H           4.14200         2.12900        30.41700
C           3.80200         2.55500        33.69300
O           4.15300         1.25100        34.17800
H           4.10600         1.25500        35.17700
C           3.76400         6.58700        32.69700
O           3.92600         7.25900        31.44000
H           3.93500         8.25700        31.50500
C           4.25600         5.17800        32.98400
O           3.86600         4.92700        34.34200
C           4.25900         3.59500        34.70300
O           3.60100         3.35200        35.95500
C           4.26300         3.69100        37.18200
C           4.01200         5.13000        37.60100
O           4.10900         6.21800        36.67000
H           3.92100         5.87900        35.74800
C           4.59000         5.32900        38.99300
O           4.39300         6.68200        39.42900
H           4.54100         6.75300        40.41600
C           4.16800         1.31000        38.10000
O           4.11500         0.72500        36.79100
H           4.44800        -0.21100        36.90000
C           3.69800         2.74900        38.23400
O           4.05700         3.06200        39.58700
C           3.81800         4.43100        39.94500
O           4.51100         4.38800        41.20200
C           8.26500        16.13500         3.36000
C           8.02100        17.57400         3.78500
O           8.50600        18.50300         2.80400
H           8.19500        18.32900         1.87000
C           8.43700        17.87100         5.21600
O           7.96000        19.14800         5.66300
H           8.13500        19.39300         6.61600
C           8.20200        13.74000         4.21100
O           7.68900        12.99800         3.09500
H           7.95300        12.03600         3.16500
C           7.71100        15.16700         4.39300
O           8.18400        15.49700         5.70700
C           7.93900        16.82300         6.19700
O           8.67000        16.83400         7.43200
C           8.00800        16.50200         8.66100
C           8.66500        15.23800         9.19100
O           8.76900        14.28000         8.12800
H           8.95300        14.81800         7.30500
C           8.12700        14.85100        10.55900
O           8.61700        13.60100        11.06600
H           8.30800        13.54300        12.01500
C           8.09700        19.04900         9.31400
O           8.69300        19.64600         8.15300
H           8.94600        20.59100         8.36100
C           8.33300        17.59100         9.67100
O           7.77100        17.28500        10.95600
C           8.30500        16.05600        11.46800
O           7.41700        15.92500        12.58800
C           8.03200        16.13400        13.86800
C           7.55100        17.47900        14.38800
O           8.02100        18.46800        13.46200
H           7.65800        18.23500        12.56000
C           7.97700        17.87600        15.79200
O           7.36000        19.05400        16.33200
H           7.97100        19.21800        17.10600
C           8.36000        13.73200        14.57500
O           7.69100        13.01400        13.52900
H           7.90900        12.04600        13.65200
C           7.74400        15.07700        14.92200
O           8.35400        15.45500        16.16500
C           7.80400        16.66800        16.69800
O           8.62000        16.99200        17.83300
C           8.02600        16.56200        19.06700
C           8.69600        15.32200        19.63600
O           8.74200        14.29500        18.63600
H           8.74900        14.81100        17.77900
C           8.15700        14.85800        20.98000
O           8.91300        13.81300        21.60800
H           8.40500        13.43100        22.37900
C           8.13900        19.06200        19.79700
O           8.62400        19.64100        18.57700
H           8.36500        20.60100        18.68500
C           8.21700        17.59000        20.17000
O           7.61800        17.21200        21.41700
C           8.25100        16.03400        21.93700
O           7.45800        15.84900        23.11900
C           8.09900        16.20700        24.35200
C           7.41200        17.44100        24.91400
O           7.32300        18.58900        24.05800
H           7.12000        18.35900        23.10600
C           7.94300        17.89600        26.26300
O           7.45300        19.13900        26.78700
H           8.00000        19.16500        27.62400
C           8.32800        13.71300        25.00300
O           7.89100        13.06500        23.79900
H           7.82700        12.08900        24.00900
C           7.78700        15.09300        25.33800
O           8.24600        15.38200        26.66700
C           7.77900        16.65800        27.12900
O           8.52000        16.88400        28.33700
C           8.03400        16.46900        29.62200
C           8.73100        15.25300        30.21000
O           8.68200        14.16700        29.27300
H           9.13900        14.36600        28.40600
C           8.11800        14.72500        31.49700
O           8.86800        13.68000        32.13300
H           8.42900        13.37500        32.97900
C           7.67300        18.87500        30.31400
O           8.39200        19.67400        29.36400
H           8.19400        20.61600        29.63500
C           8.13200        17.49000        30.74300
O           7.32100        17.08200        31.85500
C           7.99600        15.94000        32.40200
O           7.17700        15.71800        33.55900
C           7.91000        16.00400        34.76000
C           7.45300        17.38100        35.21000
O           7.68800        18.46900        34.30400
H           7.39700        18.29400        33.36300
C           7.87700        17.82200        36.60200
O           7.10800        18.93200        37.08800
H           7.57900        19.20100        37.92800
C           8.06700        13.60100        35.58400
O           7.46500        12.73200        34.61400
H           7.53000        11.76000        34.83800
C           7.56300        15.00900        35.85600
O           8.16600        15.46300        37.07600
C           7.71300        16.71000        37.62500
O           8.42300        16.98500        38.84100
C           7.91000        16.49900        40.09000
C           8.37900        15.12600        40.54300
O           7.97900        14.08100        39.64400
H           7.93400        14.36300        38.68600
C           8.08700        14.73900        -0.08400
O           8.53500        13.47700         0.43100
H           8.40000        13.48900         1.42200
C           8.20000        18.92700        40.77200
O           8.49900        19.73200        39.62300
H           8.40300        20.71900        39.75700
C           8.43900        17.47300        -0.94200
O           7.91800        17.18300         0.36300
C           8.38100        15.91100         0.83800
O           7.69300        15.78400         2.09200
C           3.70400        12.45100         0.47400
C           3.89600        10.98600        42.91700
O           3.50500         9.94300        42.01300
H           3.93300        10.15100        41.13400
C           3.35800        10.75400         2.25400
O           3.56500         9.40600         2.70100
H           3.49500         9.40400         3.69900
C           3.84700        14.80100         1.32900
O           4.17100        15.42200         0.07700
H           4.01200        16.40200         0.19900
C           4.35500        13.37700         1.48800
O           3.97100        13.06700         2.83500
C           4.05600        11.68900         3.22800
O           3.43500        11.51800         4.51000
C           4.16200        11.91000         5.68400
C           3.86300        13.34000         6.10200
O           4.38900        14.25700         5.13200
H           4.16200        13.96000         4.20500
C           4.39100        13.70300         7.48000
O           3.80800        14.91900         7.97200
H           4.12300        15.03600         8.91300
C           4.13300         9.46300         6.54500
O           3.67100         8.64700         5.45900
H           3.72800         7.65700         5.59200
C           3.78400        10.92400         6.77800
O           4.47800        11.30500         7.97400
C           3.98000        12.57700         8.41500
O           4.59000        12.62300         9.71300
C           3.75400        12.33600        10.84400
C           3.89000        10.91500        11.36500
O           3.36500         9.95200        10.43900
H           3.94900         9.96100         9.62700
C           3.51100        10.70300        12.82100
O           3.95500         9.44600        13.35300
H           3.73500         9.50800        14.32700
C           3.88600        14.81000        11.60000
O           4.69800        15.52300        10.65700
H           4.48400        16.50000        10.68300
C           4.21500        13.35200        11.87600
O           3.47400        13.04000        13.06500
C           3.98000        11.85400        13.69500
O           3.40700        11.77000        15.00900
C           4.07300        12.06900        16.24400
C           3.88300        13.52200        16.65100
O           4.30900        14.41100        15.60800
H           4.03100        13.92400        14.77900
C           4.43900        13.79800        18.03800
O           4.08800        15.13600        18.41900
H           4.11300        15.26500        19.41100
C           3.91100         9.72900        17.05600
O           3.39000         9.02000        15.92300
H           3.34500         8.08200        16.26500
C           3.56400        11.17700        17.36400
O           4.16000        11.48000        18.63400
C           3.76900        12.81500        18.98500
O           4.43300        12.96500        20.24800
C           3.73800        12.56500        21.43800
C           3.99100        11.13200        21.87800
O           3.47100        10.14400        20.97800
H           3.78700        10.34000        20.05000
C           3.58200        10.87900        23.32000
O           4.14800         9.64600        23.78700
H           3.74300         9.52900        24.69400
C           3.48400        14.91800        22.17300
O           3.91100        15.64600        21.01300
H           3.73300        16.60500        21.23400
C           4.07700        13.56500        22.53200
O           3.43700        13.24100        23.77500
C           3.89000        11.99000        24.31200
O           3.08200        11.82400        25.48500
C           3.87300        12.04200        26.66200
C           3.58500        13.40600        27.26800
O           3.74000        14.50400        26.35700
H           3.40000        14.19400        25.46900
C           4.35100        13.76100        28.53200
O           3.87100        14.98800        29.10100
H           4.44300        15.20200        29.89300
C           4.05400         9.69100        27.51800
O           3.75900         8.95500        26.32300
H           4.00200         7.99600        26.47400
C           3.60500        11.10900        27.83200
O           4.29100        11.37800        29.06300
C           4.01500        12.69500        29.56200
O           4.63500        12.78700        30.85300
C           3.93200        12.38800        32.03900
C           3.97400        10.93000        32.46500
O           3.80300         9.93800        31.44200
H           4.33400        10.22600        30.64500
C           3.16200        10.68000        33.72600
O           2.92000         9.36300        34.24200
H           2.99200         9.45000        35.23600
C           3.82000        14.73200        32.84800
O           4.53600        15.37300        31.78300
H           4.15800        16.29400        31.87700
C           4.38300        13.34800        33.12800
O           3.62600        13.00400        34.29700
C           3.68400        11.65100        34.77200
O           2.94600        11.70900        36.00100
C           3.66700        11.94800        37.21800
C           3.25100        13.28600        37.80800
O           3.38400        14.26600        36.76800
H           3.30200        13.81100        35.88100
C           3.83100        13.66100        39.16200
O           3.57800        14.95600        39.72600
H           4.07200        15.07100        40.58800
C           3.81000         9.56700        38.08100
O           3.39900         8.79600        36.94200
H           3.77500         7.87000        36.95400
C           3.30600        10.97900        38.33200
O           3.83100        11.31000        39.62600
C           3.44800        12.58400        40.16300
O           4.35300        12.65000        41.27400
C           8.30800        24.28900         3.29500
C           7.65500        25.58800         3.73900
O           7.90700        26.62300         2.77800
H           7.67300        26.15700         1.92400
C           8.13300        26.04400         5.10800
O           7.24600        27.06000         5.59700
H           7.63100        27.50200         6.40700
C           8.91500        21.91600         4.06300
O           8.53600        21.20200         2.87700
H           8.58900        20.22900         3.10000
C           8.21700        23.22800         4.38000
O           8.77000        23.73400         5.60400
C           8.09500        24.89700         6.10600
O           8.76300        25.19100         7.34100
C           8.09800        24.61200         8.47400
C           8.85300        23.40800         9.01100
O           8.76400        22.26100         8.15200
H           8.87600        22.54600         7.20000
C           8.39200        23.00700        10.40300
O           9.21200        22.01600        11.03900
H           8.75200        21.59000        11.81800
C           7.63300        27.03900         9.18500
O           7.93100        27.84300         8.03300
H           7.92500        28.77700         8.39100
C           8.28900        25.70700         9.51000
O           7.85200        25.29100        10.81200
C           8.49500        24.15100        11.39800
O           7.54700        23.98200        12.46200
C           8.10000        24.32700        13.74100
C           7.69700        25.73100        14.16300
O           8.12700        26.67900        13.17500
H           8.04700        26.21700        12.29200
C           8.12900        26.01900        15.59100
O           7.60500        27.29800        15.97800
H           7.93900        27.51100        16.89600
C           7.90800        21.78700        14.48900
O           7.95400        21.17800        13.19000
H           8.15400        20.21100        13.34600
C           7.66400        23.26600        14.73800
O           8.11700        23.56700        16.06600
C           7.74700        24.87700        16.52000
O           8.50200        24.99400        17.73500
C           7.79100        24.60000        18.91700
C           8.44400        23.31600        19.40100
O           8.15900        22.17900        18.57400
H           8.55700        22.23800        17.65800
C           7.90800        23.00600        20.78900
O           8.54900        21.86400        21.37600
H           8.15100        21.78100        22.29000
C           7.32600        27.05900        19.61700
O           7.95500        27.88600        18.62800
H           7.88900        28.85800        18.85700
C           8.01300        25.73400        19.90400
O           7.51400        25.34300        21.19200
C           8.11200        24.16500        21.75100
O           7.38600        23.90900        22.96100
C           8.00300        24.23900        24.21400
C           7.32200        25.50100        24.71900
O           7.53900        26.52100        23.73400
H           7.26500        26.01500        22.91700
C           7.88100        25.95300        26.05800
O           7.37600        27.17800        26.60800
H           7.68900        27.36200        27.53900
C           8.26300        21.82000        24.96200
O           7.56900        21.17900        23.88200
H           7.53900        20.19400        24.04900
C           7.77000        23.21500        25.31200
O           8.25100        23.64000        26.59600
C           7.67300        24.85700        27.09000
O           8.37900        25.14700        28.30600
C           7.86300        24.78900        29.59600
C           8.40600        23.41000        29.93500
O           8.12800        22.39500        28.96000
H           8.30200        22.69300        28.02200
C           8.12000        22.95400        31.35700
O           8.87400        21.85600        31.89200
H           8.45500        21.61900        32.76900
C           7.67000        27.16700        30.33800
O           8.35200        27.83400        29.26700
H           8.12200        28.80800        29.27300
C           8.16000        25.77800        30.71200
O           7.61500        25.30200        31.95100
C           8.17600        24.05900        32.39800
O           7.53600        23.69000        33.62800
C           8.14600        24.18600        34.82900
C           7.50700        25.46500        35.34600
O           7.44200        26.49900        34.35300
H           7.08700        26.01600        33.55300
C           8.22900        25.96600        36.58500
O           7.75600        27.20500        37.13200
H           8.13100        27.36100        38.04600
C           8.70500        21.82100        35.63400
O           8.28200        20.99800        34.53700
H           8.42400        20.05300        34.83200
C           8.05900        23.16000        35.94800
O           8.64600        23.69300        37.14400
C           8.06600        24.90100        37.65700
O           8.78400        25.23200        38.85500
C           8.19100        24.75400        40.07000
C           8.64600        23.39600        40.58000
O           8.17500        22.47100        39.58800
H           8.34800        22.86000        38.68300
C           8.13000        23.00700        -0.11000
O           9.14500        22.09500         0.33500
H           9.01800        21.88500         1.30500
C           7.67300        27.06700        40.87100
O           8.38200        27.90400        39.94600
H           8.33300        28.90100        40.01300
C           8.33000        25.74800        -0.85600
O           7.87200        25.38200         0.45300
C           8.34800        24.10900         0.91300
O           7.59500        23.89000         2.11500
C           3.82900        20.49100         0.46100
C           4.17800        19.06000        42.92600
O           3.82000        18.04900        41.97200
H           3.82400        18.41600        41.04200
C           3.74600        18.72800         2.27800
O           4.36100        17.56400         2.84800
H           3.98300        17.34400         3.74800
C           3.76900        22.86600         1.30800
O           4.33100        23.59800         0.20800
H           4.16900        24.58000         0.29600
C           4.32600        21.46700         1.51500
O           3.85300        21.16300         2.83600
C           4.23000        19.83000         3.20700
O           3.55600        19.63500         4.45900
C           4.09400        20.06500         5.71800
C           3.82600        21.48500         6.18800