# freq=raman b3lyp/6-31+g(2d,p) geom=connectivity

310 9194/9194.com

0 1
C           8.13000         7.86100         2.92000
C           7.63500         9.16500         3.52200
O           7.67900        10.23300         2.56400
H           7.71100         9.85100         1.64000
C           8.25900         9.52000         4.86200
O           7.74900        10.76100         5.37100
H           7.92900        10.85000         6.35100
C           8.46900         5.43400         3.74500
O           7.80900         4.77600         2.65300
H           7.75600         3.80100         2.87300
C           7.86000         6.80700         3.98100
O           8.41500         7.13900         5.26300
C           7.87000         8.36500         5.77100
O           8.61500         8.59000         6.97700
C           8.02200         8.24200         8.23700
C           8.65400         6.92400         8.65100
O           8.08300         5.90000         7.82300
H           8.09800         6.36800         6.93900
C           8.43400         6.57000        10.11200
O           9.11600         5.38900        10.56000
H           8.86300         5.19500        11.50800
C           7.46600        10.54200         8.94500
O           7.97100        11.34400         7.86800
H           7.94600        12.32100         8.07900
C           8.35800         9.34400         9.22900
O           8.24400         8.97200        10.61000
C           8.77500         7.71400        11.05300
O           8.12700         7.49300        12.31400
C           8.62600         7.90000        13.59600
C           7.84000         9.14100        13.98600
O           7.97500        10.21800        13.04700
H           7.67500         9.89000        12.15100
C           8.27300         9.56600        15.37900
O           7.51000        10.70300        15.80900
H           7.90600        10.94400        16.69500
C           8.79600         5.43100        14.37600
O           8.70200         4.68500        13.15400
H           8.59900         3.71600        13.37900
C           8.33200         6.85100        14.65600
O           8.77300         7.29300        15.94800
C           8.08800         8.46500        16.41100
O           8.82200         8.72100        17.61700
C           8.10900         8.32200        18.79700
C           8.49100         6.90600        19.19800
O           8.15400         5.88500        18.24800
H           8.39500         6.25200        17.34900
C           7.93800         6.60000        20.58000
O           8.39300         5.36000        21.14100
H           8.17700         5.43600        22.11400
C           7.81600        10.67100        19.58700
O           8.18800        11.59600        18.55500
H           7.83400        12.51300        18.74300
C           8.38600         9.30300        19.92500
O           7.72400         8.88000        21.12500
C           8.18700         7.63400        21.66600
O           7.33600         7.50100        22.81400
C           8.01500         7.90800        24.01100
C           7.71700         9.34300        24.41300
O           8.38700        10.28500        23.56200
H           8.38200         9.88700        22.64400
C           8.23000         9.56600        25.82600
O           7.82500        10.88800        26.21200
H           8.25800        11.17800        27.06500
C           7.94600         5.54200        24.90500
O           7.73900         4.77200        23.71200
H           7.88800         3.79800        23.87800
C           7.45000         6.97000        25.06500
O           7.84600         7.30000        26.40400
C           7.67700         8.63800        26.89600
O           8.58100         8.77700        28.00100
C           7.92900         8.49500        29.24800
C           8.41400         7.12300        29.68500
O           7.92700         6.04300        28.87400
H           8.13500         6.24700        27.91700
C           8.20000         6.73900        31.14000
O           8.85900         5.53600        31.56200
H           8.53400         5.22800        32.45600
C           7.72400        10.79000        29.91100
O           8.07700        11.52800        28.73200
H           8.05400        12.50600        28.94300
C           8.35400         9.47200        30.33200
O           7.90700         9.13400        31.65300
C           8.36900         7.86700        32.14400
O           7.65900         7.51600        33.34100
C           8.06000         7.99000        34.63400
C           7.32300         9.23200        35.11000
O           7.79600        10.31100        34.29000
H           7.63700         9.97300        33.36200
C           7.65200         9.71400        36.51300
O           6.76600        10.61500        37.19300
H           7.11100        10.75600        38.12100
C           8.56400         5.57500        35.40900
O           8.48600         4.83400        34.18300
H           8.56500         3.85900        34.39000
C           7.81400         6.87700        35.64000
O           8.31100         7.34700        36.90100
C           7.73000         8.53200        37.46500
O           8.68500         8.85800        38.48600
C           8.08300         8.42400        39.71400
C           8.59000         7.06900        40.18000
O           8.25000         6.05200        39.22700
H           8.36900         6.40200        38.29800
C           8.10900         6.66200        -0.49600
O           8.71800         5.44400        -0.04300
H           8.40600         5.25700         0.88900
C           7.72000        10.79200        40.50000
O           8.14400        11.48900        39.31900
H           8.15500        12.48200        39.43500
C           8.33800         9.44800        -1.24800
O           7.98700         9.04400         0.08300
C           8.47100         7.75700         0.49500
O           7.62500         7.50100         1.62600
C           4.10900         4.31800         0.25300
C           4.48200         2.92600        42.82100
O           4.45000         1.90300        41.81500
H           4.82200         2.31500        40.98300
C           3.61700         2.73200         2.00100
O           3.47200         1.39800         2.51000
H           3.28600         1.32700         3.49000
C           4.02700         6.78200         1.15600
O           4.50600         7.42900        -0.03200
H           4.29800         8.40500         0.02300
C           4.53200         5.35300         1.28200
O           3.95800         5.03300         2.55700
C           4.18600         3.69700         3.02800
O           3.53500         3.58800         4.30200
C           4.31900         3.91000         5.46100
C           3.82800         5.21400         6.06900
O           4.12000         6.26100         5.13300
H           3.75400         5.94200         4.25900
C           4.59900         5.64500         7.30500
O           4.12900         6.88200         7.86000
H           4.22100         6.82600         8.85400
C           4.42300         1.51000         6.28000
O           3.79800         0.71600         5.26100
H           4.05100        -0.24200         5.38900
C           4.00800         2.93900         6.58800
O           4.49500         3.21700         7.90900
C           4.23500         4.56900         8.31500
O           4.87300         4.69700         9.59400
C           4.26100         4.33100        10.83900
C           4.70300         2.94000        11.26500
O           4.32700         1.90500        10.34500
H           4.52000         2.40400         9.50000
C           4.12300         2.62100        12.63400
O           4.27700         1.25200        13.03600
H           3.98300         1.23100        13.99200
C           3.72000         6.64700        11.67100
O           4.18800         7.38000        10.52900
H           3.93600         8.33300        10.69600
C           4.52000         5.37700        11.91100
O           4.00800         4.92100        13.17200
C           4.52600         3.67200        13.65500
O           3.71700         3.52900        14.83200
C           4.35000         3.90400        16.06400
C           4.07200         5.33400        16.49700
O           4.44400         6.28300        15.48700
H           4.17100         5.94700        14.58600
C           4.62900         5.60500        17.88500
O           4.45500         6.96400        18.31200
H           4.42700         7.03300        19.30900
C           4.24000         1.47600        16.81400
O           3.71800         0.75700        15.68700
H           3.68100        -0.20700        15.95300
C           3.77900         2.90400        17.05600
O           4.39400         3.24400        18.30700
C           3.98200         4.54300        18.75900
O           4.57300         4.61600        20.06400
C           3.81500         4.31300        21.24500
C           4.06000         2.86900        21.65500
O           3.72800         1.91300        20.63800
H           4.17500         2.13200        19.77100
C           3.49800         2.48800        23.01500
O           4.01900         1.18600        23.32000
H           4.02800         0.89900        24.27800
C           3.64900         6.64700        22.02800
O           4.30200         7.39100        20.99000
H           4.32900         8.36600        21.21100
C           4.21300         5.27400        22.35400
O           3.56400         4.85700        23.56400
C           3.99600         3.55300        23.97800
O           3.29500         3.38900        25.21900
C           4.03800         3.76100        26.38800
C           3.73100         5.16400        26.88700
O           4.04900         6.14700        25.89100
H           3.95600         5.83500        24.94500
C           4.19400         5.53600        28.28600
O           3.39500         6.62100        28.78000
H           3.45500         6.64000        29.77800
C           4.17100         1.35700        27.22300
O           3.83500         0.62600        26.03400
H           3.85500        -0.36100        26.19400
C           3.68700         2.77300        27.48900
O           4.24500         3.11500        28.76600
C           3.83000         4.40600        29.23600
O           4.37600         4.65800        30.53800
C           3.90300         4.26600        31.83500
C           4.37900         2.89600        32.29200
O           4.29200         1.93200        31.23300
H           4.56500         2.44900        30.42200
C           3.95500         2.54200        33.70800
O           4.75600         1.40600        34.06500
H           4.64700         1.34600        35.05800
C           3.89400         6.67700        32.67600
O           3.96700         7.37800        31.42600
H           3.96700         8.35700        31.63000
C           4.35900         5.24800        32.90200
O           3.81300         4.94400        34.19400
C           4.29200         3.67500        34.66400
O           3.46400         3.53200        35.82700
C           4.27200         3.82200        36.97700
C           3.83000         5.14900        37.57200
O           4.15300         6.27200        36.73900
H           4.14300         5.98300        35.78100
C           4.32600         5.53800        38.95500
O           3.74600         6.75200        39.45400
H           4.08900         6.95700        40.37100
C           4.42600         1.40400        37.72600
O           4.05400         0.69500        36.53500
H           4.20700        -0.27700        36.71300
C           3.97300         2.81300        38.07300
O           4.51200         3.14800        39.36000
C           4.02000         4.38500        39.89700
O           4.80400         4.58100        41.08300
C           7.85500        16.00200         3.00500
C           7.57600        17.38300         3.57500
O           7.88000        18.35700         2.56600
H           7.56800        18.18900         1.63100
C           8.19600        17.76400         4.91000
O           7.79800        19.06600         5.36300
H           8.01400        19.13400         6.33700
C           7.94300        13.65900         3.91200
O           7.30600        12.83800         2.92300
H           7.46900        11.85100         2.92100
C           7.44300        15.07600         4.13800
O           8.16000        15.44300         5.32600
C           7.70000        16.69100         5.86500
O           8.45000        16.66900         7.08800
C           7.75700        16.53400         8.33800
C           8.24500        15.18700         8.84500
O           8.28900        14.03600         7.98900
H           8.64300        14.30800         7.09500
C           7.59600        14.83900        10.17400
O           7.92800        13.50900        10.59800
H           7.74200        13.44200        11.57800
C           7.69300        18.89600         9.16000
O           8.29300        19.49200         8.00000
H           8.13700        20.47900         7.97200
C           8.12800        17.47400         9.47300
O           7.47000        17.17600        10.71400
C           7.98700        15.91800        11.17100
O           7.37400        15.73100        12.45500
C           8.02500        16.05000        13.69400
C           7.56500        17.42400        14.15100
O           7.78100        18.43800        13.15800
H           7.41900        18.06400        12.30400
C           8.17800        17.72400        15.50900
O           7.63000        18.97100        15.96000
H           7.85600        19.15800        16.91600
C           8.19300        13.51700        14.46000
O           7.57900        12.79300        13.38400
H           7.68900        11.80600        13.50500
C           7.72900        14.94500        14.69500
O           8.32300        15.35100        15.93700
C           7.83200        16.59300        16.46300
O           8.55000        16.88500        17.67100
C           7.96500        16.55500        18.94000
C           8.38500        15.16000        19.37200
O           8.10400        14.20900        18.33500
H           8.68900        14.41600        17.55000
C           7.75800        14.88000        20.72900
O           7.95900        13.50400        21.08100
H           7.73000        13.39500        22.04800
C           8.15700        18.95400        19.72800
O           8.35300        19.65900        18.49400
H           8.35800        20.64700        18.65300
C           8.59000        17.51300        19.94200
O           8.05100        17.23800        21.24400
C           8.31300        15.90500        21.70500
O           7.44500        15.89500        22.84700
C           8.16800        16.18700        24.05200
C           7.74800        17.54100        24.60000
O           8.33100        18.54500        23.75600
H           8.33500        18.32800        22.77900
C           8.21700        17.78600        26.02500
O           7.74800        19.06700        26.46900
H           8.00600        19.26000        27.41600
C           8.27200        13.69300        24.76800
O           7.74400        13.02600        23.61100
H           7.84400        12.04900        23.80100
C           7.88200        15.12400        25.10100
O           8.51300        15.41600        26.35600
C           7.89700        16.59000        26.90500
O           8.58600        16.73900        28.15500
C           7.90400        16.42500        29.37800
C           8.39800        15.05400        29.81200
O           8.11400        14.09200        28.78500
H           8.37400        14.53200        27.92500
C           7.84700        14.79100        31.20400
O           8.34700        13.57900        31.78700
H           7.93200        13.47200        32.69100
C           7.61300        18.90300        30.06900
O           8.28800        19.61200        29.02000
H           8.09900        20.58000        29.18200
C           8.27300        17.55700        30.32200
O           7.80600        17.28200        31.65000
C           8.17800        15.97100        32.10200
O           7.44600        15.78400        33.32200
C           7.96600        15.96800        34.64600
C           7.52100        17.34800        35.10100
O           7.97300        18.24600        34.07800
H           7.69600        17.85600        33.20000
C           8.06600        17.78400        36.45200
O           7.46500        18.99100        36.94300
H           7.77100        19.06900        37.89200
C           7.98500        13.63300        35.46400
O           7.48500        12.86200        34.36200
H           7.64900        11.87600        34.40300
C           7.50900        15.04500        35.76400
O           8.18500        15.38700        36.98300
C           7.69100        16.66500        37.41000
O           8.48700        16.85800        38.58800
C           7.84500        16.42400        39.79500
C           8.35700        15.12600        40.39700
O           8.12100        14.13600        39.38400
H           8.45500        14.53600        38.53100
C           7.76300        14.79800        -0.30100
O           8.30500        13.64200         0.35400
H           7.83900        13.42200         1.21100
C           7.33000        18.85500        40.42300
O           7.92900        19.58900        39.34500
H           8.17700        20.48900        39.70300
C           7.94900        17.53800        -1.23000
O           7.29800        17.19200         0.00100
C           7.89600        16.02600         0.58500
O           7.18100        15.67900         1.78000
C           3.60900        12.44400         0.33200
C           4.12000        11.07900        42.85300
O           3.87400        10.07500        41.85900
H           3.84800        10.62200        41.02200
C           3.64500        10.76200         2.20300
O           4.12900         9.49900         2.68300
H           3.87100         9.52900         3.64900
C           3.50500        14.96100         1.07900
O           3.92500        15.68500        -0.08700
H           3.72200        16.63800         0.13600
C           3.99600        13.54100         1.31000
O           3.41700        13.22300         2.58400
C           3.96500        11.98200         3.05200
O           3.25100        11.75000         4.27500
C           3.99600        12.06200         5.46100
C           3.69500        13.47900         5.92300
O           3.89100        14.56700         5.00900
H           3.71200        14.24100         4.08000
C           4.19800        13.84300         7.31000
O           3.89400        15.17200         7.75800
H           4.09100        15.33800         8.72400
C           4.12200         9.72800         6.42600
O           3.72100         8.92500         5.30700
H           4.03600         7.98500         5.43500
C           3.50400        11.11200         6.54100
O           4.06900        11.51200         7.79700
C           3.67200        12.80200         8.28400
O           4.37500        12.95700         9.52600
C           3.79600        12.55700        10.77600
C           4.34300        11.21400        11.23300
O           4.01500        10.23900        10.23300
H           4.28400        10.53400         9.31600
C           3.89500        10.83500        12.63500
O           4.54500         9.62600        13.05400
H           4.24000         9.34200        13.96300
C           3.58400        14.89700        11.60300
O           4.15200        15.52900        10.44700
H           4.21300        16.49700        10.68900
C           4.14700        13.51700        11.90100
O           3.42200        13.17400        13.09100
C           4.06800        11.99700        13.59900
O           3.43100        11.80200        14.87000
C           4.21500        11.96600        16.06100
C           4.01300        13.36800        16.61500
O           4.46400        14.27500        15.59900
H           4.21700        13.81800        14.74500
C           4.44500        13.74800        18.02100
O           3.98400        15.02500        18.48600
H           4.13000        15.19400        19.46100
C           4.26400         9.62100        16.85500
O           3.94000         8.87600        15.67200
H           4.16800         7.91300        15.81600
C           3.69800        11.00700        17.12100
O           3.95800        11.29600        18.50200
C           3.82000        12.67000        18.89100
O           4.41700        12.79900        20.18900
C           3.71000        12.40400        21.37400
C           4.07100        11.00800        21.85600
O           3.65300        10.10500        20.82200
H           3.93300        10.33600        19.89000
C           3.38200        10.72700        23.18100
O           3.57200         9.41400        23.72800
H           3.37100         9.39900        24.70800
C           3.80300        14.81400        22.37300
O           4.11500        15.44000        21.12000
H           3.78200        16.38200        21.10300
C           4.12500        13.33400        22.50200
O           3.67200        13.03100        23.83000
C           3.90500        11.67700        24.24600
O           3.10600        11.66500        25.43800
C           3.87300        11.93900        26.62000
C           3.69100        13.39400        27.02100
O           4.27000        14.34400        26.11400
H           4.18100        14.03800        25.16500
C           4.18400        13.71300        28.42200
O           3.68300        14.98000        28.87400
H           3.96700        15.15700        29.81600
C           3.79700         9.51800        27.55000
O           3.42700         8.86100        26.32900
H           3.51400         7.89800        26.58400
C           3.44600        10.98700        27.72500
O           3.99600        11.37200        28.99300
C           3.63500        12.69600        29.41000
O           4.31100        12.82800        30.66900
C           3.70300        12.52100        31.93200
C           3.98600        11.10000        32.39300
O           3.60200        10.10400        31.43400
H           3.63200        10.45200        30.49700
C           3.35000        10.78200        33.73600
O           3.77600         9.50700        34.23700
H           3.56000         9.40500        35.20800
C           3.73700        14.92700        32.78900
O           4.16900        15.54700        31.57000
H           3.96300        16.52200        31.65800
C           4.14200        13.48100        33.02600
O           3.50700        13.14200        34.26800
C           3.75000        11.82000        34.77200
O           2.96300        11.68500        35.96400
C           3.66200        12.01100        37.17400
C           3.28000        13.38300        37.70600
O           3.38700        14.43700        36.73800
H           3.29500        14.00300        35.84200
C           4.03000        13.68700        38.99200
O           3.52700        14.91300        39.54300
H           3.72100        15.01000        40.51900
C           3.71700         9.59600        38.00800
O           3.19100         8.99000        36.81800
H           3.63800         8.09800        36.75700
C           3.25400        11.02300        38.25400
O           4.03700        11.28500        39.42800
C           3.66500        12.56700        39.95300
O           4.36100        12.72300        41.19800
C           7.81300        24.23800         2.96700
C           7.26300        25.58600         3.40500
O           7.49900        26.63400         2.45300
H           7.51200        26.19800         1.55300
C           7.84600        25.93600         4.76400
O           7.33900        27.14700         5.34400
H           7.72500        27.32300         6.24900
C           8.07900        21.77700         3.72600
O           7.73800        21.04900         2.53700
H           7.99300        20.09200         2.67500
C           7.57200        23.17800         4.02900
O           8.13000        23.56600         5.29300
C           7.65500        24.82700         5.78500
O           8.57500        24.96000         6.87800
C           8.02300        24.55600         8.13900
C           8.57800        23.22200         8.61200
O           8.18000        22.14200         7.75500
H           8.20300        22.47100         6.81200
C           8.10200        22.86500        10.01100
O           8.90100        21.75000        10.43200
H           8.46500        21.60800        11.32100
C           8.15200        27.04000         8.87900
O           8.54500        27.89800         7.79900
H           8.08200        28.77400         7.93500
C           8.46700        25.58100         9.17000
O           7.83700        25.29800        10.42700
C           8.29400        24.04300        10.95200
O           7.60400        23.74000        12.17300
C           8.11600        24.23900        13.41700
C           7.45800        25.53100        13.87300
O           7.92400        26.63600        13.08500
H           7.73500        26.35100        12.14500
C           7.85400        25.86700        15.30100
O           7.00600        26.96600        15.66300
H           7.29600        27.28000        16.56700
C           8.49200        21.78500        14.14000
O           7.97900        21.16400        12.95200
H           8.09100        20.19000        13.14800
C           7.83200        23.12700        14.41300
O           8.23600        23.49500        15.74100
C           7.67300        24.70600        16.26600
O           8.62600        24.91200        17.31900
C           8.17800        24.59000        18.64400
C           8.85200        23.33100        19.16400
O           8.70000        22.24000        18.24400
H           8.63000        22.63700        17.32900
C           8.44700        22.87200        20.55500
O           9.09700        21.72600        21.12500
H           8.58800        21.37100        21.90800
C           7.72900        27.10200        19.30000
O           8.27000        27.80700        18.17300
H           7.89200        28.73300        18.16300
C           8.26000        25.72300        19.65500
O           7.88800        25.30300        20.97500
C           8.42200        24.07300        21.48700
O           7.56600        23.86300        22.62000
C           7.90300        24.32300        23.93700
C           7.36800        25.66700        24.40300
O           7.64800        26.66400        23.41000
H           7.53500        26.28200        22.49300
C           7.87500        25.92400        25.81300
O           7.28500        27.14900        26.27300
H           7.58800        27.35700        27.20300
C           8.08900        21.82500        24.62600
O           7.68700        21.10100        23.45400
H           7.73400        20.12000        23.64300
C           7.60200        23.22800        24.94700
O           8.09200        23.56000        26.25500
C           7.57300        24.79100        26.78000
O           8.39700        24.96500        27.94200
C           7.72400        24.68000        29.17700
C           8.08900        23.28200        29.65000
O           7.87700        22.22600        28.70100
H           8.07300        22.56800        27.78200
C           7.64000        22.96400        31.06700
O           8.47800        21.93900        31.62000
H           8.30800        21.59100        32.54200
C           7.40200        27.03800        29.91600
O           8.03800        27.68500        28.80500
H           7.76700        28.64700        28.83000
C           7.97800        25.68200        30.29100
O           7.41800        25.33700        31.56700
C           7.94700        24.09000        32.04100
O           7.28400        23.91600        33.30200
C           7.92400        24.21900        34.55000
C           7.46500        25.62000        34.91800
O           7.75400        26.65700        33.96900
H           7.61800        26.34000        33.03100
C           7.90200        26.08600        36.29800
O           7.25300        27.29600        36.71300
H           7.60100        27.48700        37.63100
C           8.37400        21.93800        35.43200
O           8.02300        21.11100        34.31300
H           7.66900        20.24600        34.67000
C           7.62000        23.23600        35.66900
O           8.30900        23.78900        36.80000
C           7.62700        24.95700        37.27900
O           8.35400        25.27800        38.47400
C           7.90400        24.91100        39.78600
C           8.50200        23.56200        40.15200
O           8.64900        22.47700        39.22500
H           8.66300        22.87500        38.30800
C           7.85200        23.06800        41.43400
O           8.21600        21.74900        41.86800
H           7.99000        21.56700        42.82500
C           7.56200        27.24100        40.67300
O           7.78900        27.82100        39.38000
H           7.62000        28.80600        39.39500
C           8.24200        25.90900        -1.17600
O           8.06900        25.43500         0.16700
C           8.19600        24.04200         0.49100
O           7.40400        23.80100         1.66300
C           3.44000        20.72900         0.36100
C           3.68800        19.27800        42.82900
O           3.11000        18.26700        41.99100
H           3.29800        18.48700        41.03400
C           3.16600        18.98700         2.16800
O           3.30000        17.64100         2.64800
H           3.09900        17.62000         3.62700
C           3.42700        23.07200         1.28800
O           3.75700        23.73000         0.05600
H           3.53500        24.70300         0.11700
C           3.94000        21.65100         1.46100
O           3.37400        21.28800         2.72900
C           3.83000        19.98100         3.10600
O           3.16100        19.98100         4.37600
C           3.88000        20.16700         5.60400