# freq=raman b3lyp/6-31+g(2d,p) geom=connectivity
310 5000.com
310 5000.com
C           8.19700         7.90800         2.93800
0 1
O           8.20800        10.32300         2.54800
H           8.05500        10.04400         1.60000
C           8.43100         9.56700         4.81900
O           7.91000        10.81900         5.28800
H           8.42800        11.05100         6.11200
C           7.93600         5.50000         3.71900
O           7.47100         4.80700         2.55100
H           7.70100         3.83400         2.57500
C           7.64200         6.96600         3.99400
O           8.24900         7.17400         5.27700
C           7.99500         8.48800         5.79600
O           8.85900         8.56000         6.94000
C           8.32000         8.27100         8.23800
C           8.97800         7.00200         8.75400
O           8.80200         5.90900         7.84100
H           8.94800         6.32400         6.94300
C           8.57200         6.54000        10.14400
O           9.08600         5.31400        10.68500
H           8.64000         5.22000        11.57500
C           8.00700        10.80200         8.84100
O           8.58600        11.45400         7.70100
H           8.41100        12.43500         7.61800
C           8.49400         9.41400         9.22400
O           8.02000         8.93800        10.49200
C           8.63500         7.76400        11.04200
O           7.85500         7.44700        12.20400
C           8.36000         7.82700        13.49200
C           7.75100         9.15300        13.91900
O           7.93800        10.14500        12.89800
H           7.43100         9.80600        12.10600
C           8.27000         9.56000        15.28800
O           7.76000        10.75700        15.89400
H           8.21000        10.86500        16.78100
C           8.53700         5.39400        14.18500
O           8.15700         4.67800        13.00200
H           8.18900         3.70400        13.22600
C           8.03100         6.78100        14.54400
O           8.62400         7.21600        15.77600
C           8.15200         8.45500        16.32500
O           9.05300         8.54200        17.43800
C           8.57700         8.19900        18.74700
C           8.93000         6.80800        19.24900
O           8.39800         5.88800        18.28500
H           8.46200         6.31900        17.38500
C           8.43700         6.34600        20.61100
O           9.03500         5.18300        21.20300
H           8.54900         5.05200        22.06700
C           8.11600        10.55100        19.60400
O           8.52600        11.26100        18.42500
H           8.40900        12.25200        18.36800
C           8.80400         9.21900        19.85200
O           8.14600         8.78200        21.04900
C           8.63700         7.52800        21.54500
O           7.76000         7.37200        22.67000
C           8.15700         7.67400        24.01600
C           7.65000         8.97600        24.61500
O           7.86000        10.05100        23.68800
H           7.45400         9.78700        22.81300
C           8.28700         9.39600        25.93000
O           7.76600        10.62200        26.46100
H           8.08500        10.86400        27.37800
C           8.52300         5.21300        24.73300
O           8.19500         4.54900        23.50400
H           8.16000         3.56000        23.65200
C           7.98000         6.59300        25.06900
O           8.62000         7.07300        26.26000
C           8.06000         8.23600        26.88600
O           8.93900         8.31900        28.01700
C           8.21100         8.12100        29.23800
C           8.84000         6.82400        29.72000
O           8.45800         5.75600        28.84100
H           8.52200         6.17800        27.93700
C           8.37500         6.42700        31.11200
O           9.07800         5.31400        31.68200
H           8.57800         5.14500        32.53200
C           8.02900        10.61700        29.99900
O           8.47200        11.37600        28.86500
H           8.37000        12.36400        28.98000
C           8.49700         9.19700        30.27200
O           7.98500         8.81700        31.55800
C           8.53400         7.59500        32.07200
O           7.59100         7.34800        33.12600
C           8.06200         7.83500        34.39100
C           7.44900         9.09500        34.97900
O           7.33700        10.16400        34.02900
H           7.08500         9.78700        33.13700
C           7.95800         9.70500        36.27500
O           7.27800        10.86500        36.77600
H           7.66700        11.15700        37.65000
C           8.37100         5.50200        35.29100
O           8.20800         4.76800        34.06900
H           8.60400         3.86800        34.24900
C           7.87800         6.91000        35.58300
O           8.49100         7.37300        36.79500
C           7.90000         8.58100        37.29700
O           8.67600         8.81600        38.48000
C           8.14000         8.42200        39.75200
C           8.62100         7.06700        40.24500
O           8.38600         5.96200        39.36000
H           8.61800         6.25800        38.43300
C           8.04200         6.65200        -0.47600
O           8.41300         5.39000         0.09700
H           8.00200         5.19500         0.98800
C           7.87300        10.81900        40.60100
O           8.29100        11.64200        39.50200
H           7.98500        12.57000        39.71500
C           8.44800         9.42900        -1.22400
O           7.77300         9.06000        -0.01300
C           8.29300         7.81300         0.47200
O           7.59200         7.53300         1.69300
C           3.83800         4.24000         0.61200
C           4.20700         2.89700         1.22100
O           3.96000         1.96000         0.16200
H           4.44700         2.15600        -0.68900
C           3.54200         2.59100         2.55400
O           3.72400         1.22300         2.94900
H           3.29200         1.10000         3.84300
C           3.79300         6.71000         1.23600
O           4.33100         7.37000         0.08100
H           4.32900         8.36400         0.19200
C           4.25100         5.31000         1.61000
O           3.60700         4.99500         2.85200
C           3.99900         3.74300         3.43400
O           3.34300         3.72300         4.71000
C           4.12200         3.89000         5.90400
C           4.03000         5.34400         6.33800
O           4.42100         6.24400         5.29100
H           4.03700         5.87500         4.44500
C           4.68900         5.53900         7.69500
O           4.45000         6.86600         8.18400
H           4.85700         7.03400         9.08200
C           4.01200         1.51800         6.52500
O           3.15600         0.96600         5.51500
H           3.33000        -0.01500         5.41800
C           3.72900         2.93000         7.01400
O           4.44700         3.18000         8.23000
C           4.17200         4.51200         8.68900
O           4.95400         4.60000         9.88800
C           4.17200         4.25500        11.04100
C           4.50400         2.88600        11.61400
O           4.22000         2.03700        10.49300
H           4.55800         2.47900         9.66200
C           3.88500         2.54300        12.95900
O           4.51700         1.34000        13.41800
H           4.10100         1.07900        14.29000
C           4.23900         6.70200        11.79700
O           5.06200         7.40700        10.85700
H           4.71700         8.34600        10.82600
C           4.57500         5.25300        12.11400
O           3.76900         4.87400        13.23900
C           4.20800         3.68500        13.91000
O           3.39700         3.53800        15.08500
C           4.19500         3.77800        16.25300
C           3.82100         5.13800        16.82000
O           4.13700         6.09100        15.79400
H           3.81200         5.75400        14.91000
C           4.50300         5.53300        18.11900
O           4.03900         6.79900        18.61000
H           4.32100         6.90700        19.56400
C           4.35500         1.48600        16.88300
O           3.79400         0.74900        15.78600
H           3.97100        -0.21700        15.97600
C           3.83300         2.82400        17.38000
O           4.52700         3.17900        18.58400
C           4.11300         4.44800        19.11000
O           4.81200         4.54300        20.35900
C           4.05000         4.22200        21.53200
C           4.35200         2.83500        22.07500
O           4.19900         1.80300        21.08900
H           4.57300         2.20100        20.25100
C           3.48800         2.53300        23.28900
O           3.57400         1.18000        23.75900
H           3.24600         1.23100        24.70300
C           4.02800         6.67400        22.27900
O           4.66500         7.32600        21.17100
H           4.43300         8.29300        21.27500
C           4.38700         5.23500        22.61400
O           3.64900         4.96400        23.81400
C           3.90400         3.62500        24.26200
O           3.28600         3.50500        25.55200
C           3.99500         3.82100        26.75900
C           3.64500         5.22800        27.21500
O           4.39500         6.11100        26.36900
H           4.14700         5.89700        25.42400
C           4.06100         5.58500        28.63300
O           3.54600         6.82100        29.14700
H           3.90900         6.99800        30.06200
C           4.21500         1.48300        27.52700
O           3.70300         0.73000        26.41700
H           3.87200        -0.25500        26.39100
C           3.57900         2.82900        27.83300
O           4.12400         3.14000        29.12400
C           3.65500         4.43200        29.53700
O           4.49200         4.49800        30.70100
C           3.96100         4.27100        32.01400
C           4.37800         2.88700        32.48500
O           4.13000         1.88300        31.49000
H           4.20500         2.16900        30.53500
C           3.74100         2.51300        33.81300
O           4.28500         1.25400        34.23700
H           3.84400         1.02600        35.10500
C           3.68900         6.68900        32.78100
O           4.02600         7.44800        31.61000
H           3.91100         8.43500        31.71600
C           4.26000         5.31200        33.08000
O           3.74100         4.91600        34.35800
C           4.04100         3.59700        34.83600
O           3.29700         3.44400        36.05400
C           4.01800         3.76000        37.25400
C           3.70100         5.19300        37.64700
O           4.26300         6.07600        36.66600
H           4.11300         5.63200        35.78300
C           4.18700         5.49300        39.05600
O           3.85200         6.84000        39.42100
H           4.29600         6.98200        40.30600
C           4.02100         1.37000        38.01700
O           3.62600         0.69500        36.81400
H           3.77600        -0.29400        36.83500
C           3.63900         2.79800        38.36900
O           4.27000         3.15600        39.60700
C           3.79900         4.43000        40.07100
O           4.39900         4.45400        41.37400
C           8.29700        16.08800         2.85900
C           7.62100        17.35500         3.35800
O           7.84600        18.37300         2.37200
H           7.72500        18.00900         1.44800
C           7.94700        17.66300         4.81000
O           7.09300        18.72800         5.25400
H           7.39900        19.01800         6.16100
C           8.37300        13.59600         3.48900
O           8.02000        12.93200         2.26700
H           8.12300        11.95900         2.47000
C           7.97100        15.00900         3.87900
O           8.50600        15.32700         5.17200
C           7.87300        16.47500         5.75500
O           8.59100        16.86400         6.93500
C           8.09200        16.49000         8.22700
C           8.66000        15.16400         8.70400
O           8.20500        14.14600         7.80000
H           8.40700        14.44300         6.86700
C           8.21000        14.77800        10.10400
O           9.11200        13.75900        10.55800
H           8.77500        13.44000        11.44400
C           7.68200        18.89300         8.93100
O           7.46700        19.54300         7.67000
H           7.20100        20.47600         7.91200
C           8.41700        17.59500         9.22000
O           7.84800        17.21600        10.48200
C           8.32300        15.97800        11.03000
O           7.63600        15.67300        12.25300
C           8.20400        16.00700        13.52800
C           7.65200        17.35100        13.97500
O           7.55300        18.45700        13.06500
H           7.28800        18.08500        12.17500
C           8.39800        17.75400        15.23700
O           7.97600        19.02900        15.74100
H           8.47600        19.22300        16.58500
C           8.32700        13.46700        14.20100
O           8.05600        12.72200        13.00500
H           7.94200        11.75200        13.21800
C           8.02600        14.91100        14.56600
O           8.61800        15.33800        15.80200
C           8.18500        16.63300        16.24100
O           8.87600        16.75700        17.49200
C           8.14600        16.36300        18.66300
C           8.64000        15.04800        19.24500
O           8.81600        14.10400        18.17900
H           9.12600        14.63300        17.38800
C           8.16300        14.63500        20.62800
O           8.83400        13.60400        21.36700
H           8.33300        13.60000        22.23200
C           7.91800        18.84200        19.32400
O           8.59400        19.57600        18.29300
H           8.55000        20.56500        18.42800
C           8.33300        17.43500        19.72400
O           7.64600        17.06700        20.92800
C           8.20400        15.87700        21.50400
O           7.47600        15.75000        22.73400
C           8.14900        16.07700        23.95800
C           7.49900        17.38000        24.39400
O           7.67800        18.41100        23.41200
H           7.42900        18.06600        22.50700
C           7.95300        17.80300        25.78200
O           7.35900        19.06300        26.12700
H           7.59100        19.40900        27.03600
C           8.42300        13.67200        24.87800
O           7.85400        12.89200        23.81600
H           7.84700        11.91100        24.01000
C           7.83400        15.06300        25.04600
O           8.28400        15.49500        26.33800
C           7.65400        16.70300        26.78800
O           8.48000        16.82500        27.95500
C           7.95200        16.42500        29.22800
C           8.62900        15.11800        29.60600
O           8.34900        14.08700        28.64800
H           8.28400        14.47200        27.72800
C           8.10200        14.64900        30.95200
O           8.39300        13.30100        31.34900
H           8.25400        13.26000        32.33800
C           7.85400        18.83400        30.14600
O           8.24700        19.66500        29.04400
H           7.99300        20.59300        29.31800
C           8.32800        17.40200        30.33100
O           7.86800        17.02000        31.63600
C           8.35400        15.72000        32.00100
O           7.59400        15.54900        33.20700
C           8.04000        15.90700        34.52300
C           7.48100        17.25200        34.95600
O           7.88400        18.23900        33.99600
H           7.66400        17.89700        33.08200
C           7.89300        17.68700        36.35300
O           7.34800        18.91700        36.85300
H           7.73300        19.11800        37.75400
C           8.23200        13.49500        35.31000
O           7.52500        12.94200        34.19100
H           7.32700        11.97500        34.35500
C           7.66100        14.87900        35.57700
O           7.92500        15.36300        36.90100
C           7.49000        16.64300        37.38200
O           8.41800        16.88200        38.44900
C           7.94400        16.50000        39.74900
C           8.53000        15.17400        40.20700
O           8.05900        14.21000        39.25400
H           8.08800        14.50400        38.29900
C           8.08500        14.80000        -0.45300
O           8.71300        13.57100        -0.06100
H           8.32300        13.27000         0.80900
C           7.72000        18.87200        40.42800
O           8.22900        19.56800        39.28100
H           8.20900        20.53500        39.53300
C           8.38700        17.54200        -1.31100
O           7.95900        17.19700         0.01400
C           8.46500        15.93800         0.48000
O           7.66100        15.67800         1.64000
C           3.81700        12.38500         0.54700
C           4.19000        10.98100        43.04900
O           3.93100        10.04400        41.99400
H           4.23900        10.39200        41.10800
C           3.57300        10.70800         2.34700
O           3.88500         9.35800         2.71900
H           3.61500         9.17400         3.66500
C           4.04400        14.84500         1.28900
O           4.45100        15.59800         0.13800
H           4.02700        16.50000         0.21400
C           4.41600        13.38900         1.51900
O           3.92100        13.13600         2.84200
C           4.18000        11.78100         3.23700
O           3.53500        11.84000         4.51700
C           4.37400        12.07000         5.65800
C           3.87200        13.40200         6.19100
O           4.30700        14.39400         5.25100
H           3.94000        14.21100         4.33900
C           4.49300        13.79100         7.52300
O           3.86900        14.98300         8.02400
H           4.09600        15.19700         8.97400
C           4.46800         9.61600         6.31500
O           3.96000         8.84600         5.21600
H           4.31800         7.91200         5.21400
C           3.96700        11.00700         6.66600
O           4.45200        11.40500         7.95700
C           4.02200        12.68200         8.45000
O           4.75300        12.75200         9.68200
C           4.06700        12.58900        10.93200
C           4.45700        11.21900        11.46200
O           4.14300        10.18200        10.52100
H           4.46700        10.46600         9.61900
C           3.88700        10.83800        12.81900
O           4.27800         9.52900        13.25500
H           4.00600         9.25800        14.17900
C           3.75800        14.90500        11.83400
O           4.09500        15.66300        10.66300
H           4.01200        16.65600        10.74800
C           4.40000        13.54700        12.06500
O           3.91000        13.28000        13.38700
C           4.25000        11.94600        13.79400
O           3.55200        11.64600        15.01100
C           4.22800        11.92700        16.24600
C           3.67200        13.27000        16.69300
O           3.90200        14.35300        15.78000
H           3.74200        14.04900        14.84100
C           4.32600        13.65600        18.00900
O           3.71200        14.88000        18.43900
H           3.86600        15.04700        19.41200
C           4.17200         9.45100        16.78300
O           3.50500         8.82900        15.67500
H           3.86500         7.90800        15.82200
C           3.76700        10.85100        17.21500
O           4.23900        11.27500        18.50200
C           3.91100        12.58100        19.00000
O           4.76500        12.69200        20.14800
C           4.11300        12.45100        21.40300
C           4.46700        11.03900        21.83900
O           4.41100         9.96400        20.89000
H           4.34800        10.34500        19.96700
C           3.77800        10.79200        23.17200
O           4.07300         9.51200        23.75100
H           3.91900         9.39400        24.73200
C           4.06700        14.84800        22.21000
O           4.37100        15.66900        21.07300
H           4.10800        16.57200        21.41400
C           4.61700        13.44900        22.43400
O           4.03300        13.08900        23.69400
C           4.34100        11.77600        24.18400
O           3.50300        11.83200        25.34700
C           4.10600        12.03800        26.63400
C           3.75600        13.41000        27.18800
O           4.14000        14.37800        26.20100
H           3.86800        14.07500        25.28700
C           4.37500        13.66900        28.55200
O           3.98100        14.97900        28.98600
H           4.13800        15.19700        29.94900
C           4.12600         9.62000        27.43900
O           4.00800         8.87400        26.21900
H           4.48000         7.99500        26.28700
C           3.57500        11.02400        27.63300
O           3.91500        11.29500        29.00100
C           3.78200        12.63500        29.49600
O           4.36700        12.60700        30.80600
C           3.60200        12.44400        32.00900
C           3.80000        11.01100        32.47700
O           3.49400        10.00700        31.49800
H           3.72300        10.32800        30.57900
C           3.17000        10.73400        33.83300
O           3.54100         9.44500        34.34200
H           3.04600         9.37900        35.20800
C           3.49000        14.80400        32.89700
O           3.85500        15.62600        31.78000
H           3.77000        16.61600        31.89800
C           3.92600        13.37300        33.16700
O           3.23400        13.03200        34.37700
C           3.58000        11.74000        34.89600
O           2.91600        11.68700        36.16700
C           3.67900        12.02200        37.33600
C           3.32900        13.39900        37.87700
O           3.56000        14.37600        36.85100
H           3.28800        14.03400        35.95100
C           4.11400        13.75400        39.12900
O           3.97500        15.10000        39.60700
H           4.35300        15.15500        40.53100
C           3.86600         9.57700        38.03600
O           3.19600         8.96600        36.92400
H           3.60700         8.05500        36.89500
C           3.42300        10.98200        38.41400
O           4.04200        11.28200        39.67300
C           3.76300        12.62700        40.08700
O           4.42900        12.71100        41.35500
C           7.78400        24.20300         2.88000
C           7.24000        25.53000         3.38300
O           7.41200        26.69400         2.56200
H           7.16100        26.34600         1.65800
C           7.75600        25.88100         4.76900
O           7.15900        27.04500         5.36000
H           7.53400        27.31600         6.24600
C           7.98200        21.72500         3.64900
O           7.60400        21.08200         2.42300
H           7.69100        20.10800         2.63500
C           7.47800        23.13400         3.91700
O           8.06700        23.48200         5.17800
C           7.56300        24.71100         5.72000
O           8.41400        24.78400         6.87300
C           7.76000        24.48900         8.11500
C           8.17700        23.10500         8.58700
O           7.74000        22.16700         7.59300
H           8.15600        22.40500         6.71500
C           7.56400        22.84000         9.95200
O           8.12200        21.62500        10.47300
H           7.87200        21.57700        11.44000
C           7.50100        26.94700         8.87000
O           7.97500        27.63500         7.70300
H           7.78000        28.58600         7.94600
C           8.10600        25.57600         9.12000
O           7.49400        25.23600        10.37200
C           7.87900        23.96700        10.92200
O           7.20200        23.64700        12.14600
C           7.83100        24.08900        13.35700
C           7.31900        25.44600        13.81000
O           7.29000        26.48200        12.81800
H           6.98900        26.02100        11.98300
C           7.96100        25.88900        15.11500
O           7.24400        27.02600        15.61800
H           7.60100        27.31100        16.50700
C           8.05000        21.70400        14.14700
O           7.36900        21.03200        13.07800
H           7.70900        20.10300        13.22200
C           7.54500        23.09900        14.47500
O           8.33600        23.49800        15.60400
C           7.85000        24.74900        16.11400
O           8.54500        24.98700        17.34700
C           7.91900        24.66700        18.59800
C           8.60700        23.42800        19.14700
O           8.86300        22.46700        18.11200
H           9.35100        22.97200        17.40100
C           7.96100        22.93400        20.43100
O           8.66900        21.75600        20.84300
H           8.25000        21.37000        21.66500
C           7.48400        27.03000        19.17200
O           8.15800        27.75000        18.13000
H           7.72200        28.64800        18.17300
C           8.15400        25.74800        19.64000
O           7.54400        25.30200        20.86000
C           8.09300        24.09300        21.40600
O           7.34400        23.97300        22.62400
C           8.08300        24.15200        23.84100
C           7.45800        25.44400        24.34400
O           7.68800        26.53700        23.44300
H           7.43300        26.13500        22.56400
C           7.89800        25.85600        25.73900
O           7.27400        26.93600        26.45000
H           7.85400        27.09900        27.24800
C           8.21100        21.74400        24.53400
O           7.78700        20.99700        23.38400
H           7.68800        20.01800        23.56300
C           7.68600        23.12500        24.88900
O           8.11100        23.42000        26.22800
C           7.62500        24.69300        26.67800
O           8.39100        24.89800        27.87400
C           7.77900        24.67800        29.15300
C           8.15000        23.31400        29.71200
O           7.94900        22.31300        28.70400
H           8.31900        22.64300        27.83500
C           7.44200        23.02800        31.02600
O           7.97100        21.77300        31.47600
H           7.56800        21.61400        32.37800
C           7.86300        27.09100        29.89700
O           8.21000        27.80800        28.70400
H           7.91300        28.75600        28.81800
C           8.31300        25.66700        30.17600
O           7.81400        25.42500        31.50000
C           7.93900        24.08500        31.99800
O           7.36900        24.00000        33.31200
C           8.10700        24.30600        34.50400
C           7.65000        25.70400        34.89000
O           8.09900        26.73900        34.00300
H           8.10200        26.31500        33.09700
C           7.94500        26.01000        36.34900
O           6.99000        26.97800        36.80800
H           7.37200        27.43600        37.61000
C           8.15400        21.82800        35.35800
O           7.63800        21.23900        34.15500
H           7.79300        20.25100        34.14500
C           7.75000        23.27900        35.56600
O           8.38000        23.63300        36.80600
C           7.79300        24.84200        37.30900
O           8.57600        25.13500        38.47500
C           8.03000        24.78000        39.75400
C           8.59300        23.45600        40.24400
O           8.35600        22.38900        39.31300
H           8.64500        22.75900        38.43000
C           8.07100        23.03200        -0.45700
O           8.83400        21.93400         0.06300
H           8.44200        21.65000         0.93800
C           7.56400        27.16900        40.40700
O           8.07200        27.86700        39.26100
H           7.96600        28.84900        39.41400
C           8.24100        25.86100        -1.27200
O           7.63900        25.42900        -0.04300
C           8.15000        24.20500         0.50700
O           7.30500        23.79300         1.59100
C           3.55400        20.56500         0.36900
C           3.85900        19.14400        42.86400
O           3.41200        18.09800        41.99000
H           3.71100        18.28200        41.05300
C           3.39700        18.70900         2.18100
O           3.93000        17.46600         2.66100
H           3.65800        17.37400         3.61900
C           3.82500        23.01700         1.16300
O           4.40900        23.53500        -0.04000
H           4.31500        24.52900         0.02200
C           4.04800        21.53700         1.42800
O           3.43000        21.17200         2.67100
C           3.80200        19.85300         3.09700
O           3.15700        19.73800         4.37300
C           3.75800        20.06900         5.63400
C           3.24000        21.42000         6.10000