# freq=raman b3lyp/6-31+g(d,p) geom=connectivity

280 6000.com

0 1
O           7.50300         7.63000        12.40400
C           8.11500         7.96600        13.65800
C           7.58700         9.29500        14.17200
O           7.78100        10.30800        13.17400
H           7.52700         9.96500        12.26900
C           8.17000         9.73300        15.50600
O           7.58200        10.93000        16.03500
H           7.98000        11.14400        16.92700
C           8.21700         5.46200        14.51700
O           7.50300         5.00400        13.36000
H           7.69600         4.02500        13.28600
C           7.92000         6.93400        14.75700
O           8.65100         7.34900        15.92000
C           8.05400         8.54300        16.44500
O           8.84700         8.75200        17.62300
C           8.32200         8.41800        18.91600
C           8.74000         7.03900        19.40200
O           8.55100         6.04200        18.38700
H           8.78900         6.39900        17.48400
C           8.19300         6.76200        20.79300
O           8.60700         5.49900        21.33400
H           8.11200         5.19500        22.14800
C           8.08000        10.75100        19.51000
O           8.59900        11.48600        18.39200
H           8.42500        12.47000        18.43500
C           8.71400         9.44600        19.96400
O           8.10400         9.17200        21.23400
C           8.51400         7.89700        21.75000
O           7.63900         7.81800        22.88500

