# freq=raman b3lyp/6-31+g(2d,p) geom=connectivity
280 8000.com
280 8000.com
C           8.06100         8.01600         3.19600
0 1
O           7.56200        10.38800         2.81000
H           7.69200         9.94600         1.92200
C           8.01300         9.72500         5.08000
O           7.64500        10.96400         5.70200
H           8.10900        11.25900         6.53800
C           8.24700         5.52900         3.84000
O           7.84100         4.79900         2.67400
H           8.03600         3.83600         2.86300
C           7.79400         6.92900         4.22400
O           8.47800         7.40200         5.39400
C           7.92100         8.55300         6.04400
O           8.77300         8.75600         7.18000
C           8.15300         8.47600         8.44400
C           8.47400         7.08400         8.96400
O           8.20600         6.06900         7.98600
H           8.53800         6.33700         7.08200
C           7.88300         6.66000        10.29900
O           8.30500         5.39600        10.83100
H           7.92400         5.15900        11.72500
C           8.01500        10.83800         9.29500
O           8.35000        11.57900         8.11300
H           8.16900        12.55400         8.23800
C           8.57900         9.44600         9.53300
O           8.09500         9.01200        10.81200
C           8.40000         7.69300        11.28600
O           7.47500         7.57900        12.37700
C           8.12500         7.81900        13.63400
C           7.59200         9.16300        14.10200
O           8.27100        10.20700        13.38900
H           8.18300         9.83200        12.46600
C           7.80300         9.50700        15.56700
O           6.94900        10.57400        16.00700
H           7.25200        10.78600        16.93700
C           8.13600         5.44700        14.31000
O           7.57300         4.55600        13.33600
H           7.69300         3.63800        13.71600
C           7.50900         6.80400        14.58400
O           7.84900         7.10100        15.94600
C           7.36700         8.35300        16.45500
O           8.18700         8.46400        17.62700
C           7.64500         8.25300        18.93900
C           8.41500         7.00900        19.35300
O           8.15000         5.99000        18.37800
H           8.33400         6.44300        17.50600
C           8.10800         6.61300        20.78800
O           8.78400         5.43700        21.25600
H           8.54300         5.21300        22.20000
C           7.57400        10.66800        19.50400
O           8.02200        11.34400        18.32000
H           8.14200        12.32900        18.44400
C           8.16300         9.32000        19.88900
O           7.72400         8.94700        21.20300
C           8.36900         7.77800        21.72800
O           7.67600         7.60600        22.97300
C           8.29200         7.91500        24.23200
C           7.89100         9.32200        24.64500
O           8.07100        10.29600        23.60700
H           7.89500         9.79600        22.75900
C           8.37900         9.64700        26.04700
O           7.96800        10.96100        26.45000
H           8.08300        10.94800        27.44300
C           8.27500         5.46200        25.07500
O           7.99600         4.78300        23.84200
H           7.98300         3.79300        23.98200
C           7.95700         6.92500        25.33600
O           8.48800         7.35100        26.60000
C           7.98400         8.60500        27.08100
O           8.68800         8.90500        28.29500
C           8.22500         8.42200        29.56400
C           8.96100         7.15000        29.95200
O           8.75100         6.04500        29.06000
H           8.78800         6.42400        28.13600
C           8.57300         6.75200        31.36700
O           9.20900         5.61100        31.96100
H           8.70400         5.36500        32.78800
C           7.60900        10.77600        30.09500
O           8.32700        11.55700        29.12800
H           8.04100        12.51300        29.17800
C           8.32000         9.53100        30.59900
O           7.81000         9.04800        31.85000
C           8.52300         7.90900        32.35300
O           7.80400         7.56000        33.54500
C           8.29600         8.08100        34.78800
C           7.63300         9.33800        35.32700
O           7.76100        10.29100        34.26200
H           7.30700         9.94200        33.44200
C           8.07900         9.79300        36.70700
O           7.37800        10.87100        37.34300
H           7.84300        11.28700        38.12500
C           8.59300         5.62600        35.33300
O           8.19000         4.85300        34.19200
H           8.19800         3.89100        34.46500
C           8.11900         6.98300        35.82500
O           8.70600         7.39200        37.06900
C           8.06000         8.56000        37.59600
O           8.76700         8.80300        38.82100
C           8.25100         8.48100        40.12100
C           8.80300         7.15900        40.62700
O           8.45100         6.15300        39.66600
H           8.85800         6.48700        38.81500
C           8.25700         6.74000        -0.08900
O           8.91500         5.55500         0.38100
H           8.43400         5.23600         1.19800
C           7.97700        10.98800        40.83800
O           8.51900        11.71600        39.72700
H           8.50900        12.69600        39.92500
C           8.45200         9.57900        -0.91800
O           7.88400         9.14600         0.32700
C           8.39900         7.91800         0.86200
O           7.48200         7.65500         1.93400
C           4.09700         4.31100         0.43400
C           4.45400         2.93600         0.97500
O           3.97200         1.99900         0.00100
H           4.33400         2.38900        -0.84600
C           3.86600         2.59700         2.33500
O           4.44300         1.43300         2.94600
H           4.04500         1.15800         3.82100
C           3.96200         6.65700         1.26500
O           4.60000         7.37500         0.19800
H           4.26000         8.30900         0.31100
C           4.50000         5.26400         1.54800
O           3.78600         5.03500         2.77100
C           4.14700         3.74600         3.28900
O           3.40600         3.59800         4.50900
C           4.19600         3.87300         5.67500
C           3.91500         5.31300         6.07100
O           4.45100         6.31300         5.19200
H           4.13400         6.05400         4.28000
C           4.28800         5.52500         7.52900
O           3.94100         6.83000         8.01500
H           4.19400         6.90400         8.97900
C           3.93900         1.46300         6.53600
O           3.68300         0.83500         5.27100
H           3.68100        -0.14400         5.47700
C           3.57500         2.93000         6.69300
O           4.05400         3.18200         8.02300
C           3.67000         4.49400         8.45900
O           4.32200         4.75100         9.71200
C           3.78900         4.30800        10.96800
C           4.20300         2.96300        11.54300
O           4.27600         1.89900        10.58300
H           4.61100         2.34500         9.75200
C           3.33700         2.74700        12.77300
O           3.50700         1.40800        13.25900
H           3.18300         1.31900        14.20100
C           3.84300         6.81600        11.66700
O           4.39100         7.44000        10.49700
H           4.11800         8.40100        10.46500
C           4.09400         5.36000        12.02200
O           3.56800         5.08000        13.32800
C           3.88000         3.75300        13.77500
O           3.13800         3.65400        14.99800
C           3.86400         3.96300        16.19700
C           3.55400         5.37700        16.66300
O           3.57600         6.41200        15.67000
H           3.15300         5.95700        14.88500
C           4.20900         5.71100        17.99400
O           3.93200         7.04300        18.45200
H           3.92200         6.92900        19.44600
C           4.24700         1.58100        16.94900
O           3.84400         0.79800        15.81600
H           4.09000        -0.15500        15.99000
C           3.70200         2.95000        17.31800
O           4.24300         3.33400        18.59100
C           3.81600         4.64200        19.00000
O           4.59700         4.91700        20.17200
C           4.02400         4.45700        21.40400
C           4.50600         3.08800        21.85600
O           4.31300         2.05600        20.87900
H           4.37100         2.53300        20.00200
C           4.04700         2.64100        23.23500
O           4.60900         1.40600        23.70200
H           4.45600         1.31000        24.68600
C           3.71600         6.84900        22.35900
O           4.06900         7.57200        21.17000
H           3.98900         8.54800        21.37200
C           4.30900         5.45800        22.51200
O           3.84700         4.99200        23.78800
C           4.41600         3.74500        24.21200
O           3.71000         3.55200        25.44600
C           4.53600         3.84100        26.58400
C           4.20000         5.24500        27.05900
O           4.53700         6.26500        26.10900
H           4.24700         5.82300        25.25900
C           4.68700         5.60000        28.45500
O           4.13000         6.84500        28.90100
H           4.43700         7.04200        29.83200
C           4.75000         1.47400        27.36900
O           4.13200         0.70500        26.32700
H           4.29800        -0.25600        26.54800
C           4.23600         2.86400        27.70900
O           4.74100         3.21600        29.00500
C           4.29500         4.50900        29.43800
O           4.89800         4.68300        30.72800
C           4.21500         4.43700        31.96600
C           4.45100         3.01800        32.45500
O           4.06600         2.01100        31.50800
H           4.48000         2.27300        30.63600
C           3.81300         2.66000        33.78800
O           4.14300         1.34400        34.25400
H           3.87500         1.22400        35.21000
C           4.30600         6.83600        32.78100
O           4.67000         7.50700        31.56500
H           4.36800         8.45300        31.68300
C           4.58100         5.37700        33.10400
O           3.87500         5.06100        34.31200
C           4.18000         3.74300        34.78900
O           3.43700         3.67900        36.01500
C           4.07800         3.97600        37.26500
C           3.68200         5.34000        37.80600
O           3.93300         6.38500        36.85500
H           3.66000         5.97600        35.98400
C           4.35800         5.63900        39.13300
O           4.17400         6.93900        39.71400
H           4.51900         6.93900        40.65200
C           4.21000         1.46300        38.01700
O           3.77800         0.82500        36.80600
H           4.20000        -0.08100        36.80500
C           3.84200         2.90700        38.31900
O           4.41100         3.30500        39.57500
C           4.01100         4.55900        40.14500
O           4.83900         4.61600        41.31600
C           7.81900        16.13800         3.08900
C           7.48500        17.53600         3.58400
O           7.98500        18.55800         2.70900
H           7.87200        18.05200         1.85400
C           8.04500        17.93100         4.94000
O           7.56000        19.15100         5.52000
H           8.05600        19.37900         6.35800
C           7.99600        13.79900         3.94000
O           7.53500        13.06200         2.79900
H           7.70200        12.09500         2.99200
C           7.49700        15.20200         4.24200
O           8.20600        15.56200         5.43600
C           7.82400        16.83700         5.97200
O           8.67200        16.89200         7.12800
C           8.12300        16.50600         8.39600
C           8.56000        15.15000         8.92700
O           8.22300        14.19100         7.91400
H           8.38000        14.61200         7.02100
C           7.98600        14.80500        10.29200
O           8.55500        13.58400        10.78500
H           8.06600        13.41900        11.64200
C           7.74200        18.89500         9.20500
O           8.25900        19.72700         8.15600
H           7.97200        20.68400         8.19900
C           8.43700        17.56400         9.44100
O           7.79400        17.20100        10.67200
C           8.25700        15.96600        11.23500
O           7.30900        15.74200        12.28900
C           7.69100        16.14500        13.61300
C           7.11500        17.43600        14.17100
O           7.47500        18.45100        13.22200
H           7.25600        18.02200        12.34600
C           7.48000        17.77900        15.60600
O           6.52800        18.71200        16.13800
H           6.83400        19.15400        16.98100
C           7.96300        13.64200        14.37700
O           7.48200        12.78500        13.33100
H           7.74000        11.85700        13.59900
C           7.42500        15.04200        14.62300
O           8.05300        15.43000        15.85400
C           7.47000        16.56100        16.51600
O           8.31400        16.76500        17.65800
C           7.81500        16.41900        18.95900
C           8.46600        15.13800        19.45200
O           8.30800        14.16300        18.41000
H           8.54700        14.57300        17.53000
C           7.89000        14.72800        20.79700
O           8.42200        13.52200        21.36500
H           8.05700        13.48500        22.29500
C           7.62500        18.87600        19.58000
O           8.12600        19.53100        18.40500
H           8.05400        20.51400        18.57100
C           8.09200        17.49200        19.99900
O           7.51100        17.10900        21.25400
C           8.12900        15.90400        21.73000
O           7.48200        15.60200        22.97500
C           8.00100        16.03700        24.24100
C           7.41200        17.32600        24.79100
O           7.72300        18.36300        23.84900
H           7.57300        17.92300        22.96300
C           7.97200        17.80700        26.12000
O           7.38800        19.03900        26.56800
H           7.68300        19.25000        27.50000
C           8.24400        13.61700        24.95900
O           7.40500        12.86700        24.06900
H           7.71400        11.91900        23.98500
C           7.66800        14.98500        25.28700
O           8.28700        15.38800        26.51700
C           7.74800        16.61400        27.03400
O           8.47500        16.95600        28.22300
C           8.06100        16.55700        29.53800
C           8.55500        15.16800        29.90900
O           7.96300        14.16000        29.07700
H           8.28800        14.36300        28.15300
C           8.11700        14.72400        31.29600
O           8.71900        13.49800        31.73500
H           8.53800        13.29200        32.69700
C           8.18800        18.94400        30.30300
O           8.07100        19.65900        29.06400
H           7.93100        20.60600        29.35500
C           8.63000        17.51500        30.57200
O           8.22300        17.16900        31.90300
C           8.53900        15.81700        32.26400
O           7.67400        15.80000        33.40900
C           8.12000        16.15600        34.72500
C           7.53700        17.48500        35.17700
O           7.99500        18.53500        34.31300
H           7.88400        18.11700        33.41100
C           7.91400        17.92700        36.58200
O           7.19900        19.03900        37.13900
H           7.58600        19.32600        38.01500
C           8.08300        13.63500        35.48000
O           7.87900        12.91200        34.25700
H           7.94600        11.92200        34.38000
C           7.78700        15.09800        35.76500
O           8.29800        15.51400        37.03900
C           7.75600        16.74900        37.53000
O           8.52000        16.98900        38.72000
C           7.84900        16.60300        39.92800
C           8.48800        15.34000        40.48100
O           8.65100        14.34500        39.46100
H           9.18200        14.76300        38.72400
C           7.94800        14.85200        -0.25600
O           8.41500        13.66400         0.40000
H           7.87300        13.43800         1.21000
C           7.68400        19.09900        40.77200
O           8.31200        19.78100        39.67600
H           8.40400        20.74700        39.91600
C           8.04400        17.64400        -1.05100
O           7.42700        17.18700         0.16100
C           8.08400        16.02900         0.69600
O           7.21100        15.85100         1.82100
C           3.69300        12.59700         0.34500
C           4.04700        11.19400        42.88200
O           3.84100        10.14600        41.92400
H           3.94800        10.52400        41.00400
C           3.43400        10.90000         2.17100
O           3.90400         9.63500         2.65800
H           3.53700         9.36200         3.54700
C           3.67300        15.11700         1.00800
O           4.06900        15.69400        -0.24500
H           4.13300        16.66900        -0.03200
C           4.07200        13.68700         1.33400
O           3.44400        13.29900         2.56500
C           3.78500        12.02500         3.13100
O           3.02800        11.91200         4.34500
C           3.87300        12.04400         5.49700
C           3.75400        13.47000         6.01000
O           4.29900        14.32400         4.99300
H           3.97500        14.03900         4.09100
C           4.42600        13.70000         7.35300
O           4.20700        15.05800         7.75900
H           4.57200        15.29000         8.66100
C           4.03000         9.70300         6.34400
O           3.67900         8.89000         5.21500
H           3.89700         7.93900         5.43500
C           3.47600        11.09300         6.61400
O           4.14600        11.41000         7.84300
C           3.91600        12.71500         8.39300
O           4.62700        12.71600         9.64000
C           3.84500        12.50400        10.82500
C           4.03900        11.06900        11.28900
O           3.67900        10.02400        10.37400
H           3.86800        10.28800         9.42900
C           3.38200        10.85900        12.64300
O           3.50100         9.53300        13.17700
H           3.08100         9.44500        14.08100
C           3.85000        14.99600        11.68400
O           4.13000        15.62600        10.42600
H           4.14400        16.61700        10.56000
C           4.18300        13.52800        11.89600
O           3.32000        13.20600        12.99600
C           3.83300        11.98800        13.55500
O           3.14200        11.81500        14.80100
C           3.81800        12.20100        16.00600
C           3.25400        13.52000        16.50900
O           3.35200        14.57900        15.54500
H           3.11500        14.12500        14.68600
C           3.92300        13.79100        17.84600
O           3.77900        15.14500        18.29700
H           3.99900        15.10300        19.27200
C           3.87700         9.82400        16.97800
O           3.20300         9.08200        15.95100
H           3.33500         8.09100        15.98400
C           3.37800        11.25400        17.11100
O           3.98200        11.56400        18.37500
C           3.52300        12.80400        18.93100
O           4.14200        13.05800        20.20100
C           3.58400        12.64000        21.45500
C           3.93500        11.21800        21.86200
O           3.50500        10.18800        20.96100
H           3.70600        10.51900        20.03900
C           3.57300        10.87100        23.29600
O           4.22200         9.65700        23.70200
H           4.03900         9.61300        24.68400
C           3.63900        15.09600        22.22900
O           4.23500        15.75900        21.10400
H           3.88900        16.68700        21.24500
C           4.05800        13.65700        22.48000
O           3.44900        13.23200        23.70800
C           3.88200        11.98800        24.27900
O           3.14800        11.85000        25.50500
C           3.83000        12.26900        26.69500
C           3.21500        13.52900        27.28300
O           3.26100        14.63100        26.36500
H           3.09700        14.25800        25.45100
C           3.93200        13.91200        28.56700
O           3.47000        15.15100        29.12400
H           3.85900        15.25100        30.04000
C           4.10500         9.85500        27.45600
O           3.61800         9.05400        26.36900
H           3.90600         8.10300        26.47500
C           3.55400        11.23500        27.77400
O           4.22000        11.51500        29.01400
C           3.83400        12.77800        29.57400
O           4.67900        12.88500        30.72900
C           3.98600        12.57300        31.94700
C           4.34000        11.18500        32.45500
O           4.08400        10.11000        31.53900
H           4.27300        10.46400        30.62200
C           3.43000        10.90300        33.64000
O           3.81200         9.64100        34.20500
H           3.42400         9.54500        35.12200
C           3.79000        14.96100        32.87000
O           4.20700        15.70100        31.71300
H           3.95600        16.66600        31.78200
C           4.28200        13.53800        33.08300
O           3.62800        13.24800        34.32700
C           3.81700        11.88500        34.73400
O           3.02200        11.80100        35.92500
C           3.72900        12.09500        37.13800
C           3.58800        13.52000        37.64600
O           4.01700        14.43900        36.63000
H           3.80100        13.97100        35.77300
C           4.29000        13.77900        38.96900
O           4.26200        15.16700        39.33200
H           4.37800        15.25300        40.32200
C           3.71900         9.75000        38.09700
O           3.61700         9.04300        36.85300
H           3.91400         8.10200        37.01700
C           3.38000        11.21400        38.32700
O           3.94600        11.50800        39.61300
C           3.66500        12.85900        40.00500
O           4.41400        12.94900        41.22600
C           7.98700        24.20900         3.03400
C           7.70900        25.62700         3.50600
O           8.11100        26.62300         2.55500
H           7.78200        26.27100         1.67900
C           8.14200        25.83300         4.94900
O           7.61400        27.07600         5.43500
H           8.07900        27.27800         6.29700
C           8.08100        21.84300         3.83500
O           7.96900        21.14400         2.58600
H           8.09200        20.17900         2.81700
C           7.50900        23.22800         4.09200
O           7.96000        23.45700         5.43500
C           7.60800        24.77000         5.89500
O           8.42300        24.90200         7.06900
C           7.74700        24.59000         8.29600
C           8.12300        23.21200         8.81400
O           7.64900        22.16100         7.96000
H           7.52300        22.50500         7.02900
C           7.58000        22.86900        10.19200
O           7.96000        21.62200        10.79100
H           7.78200        21.53600        11.77100
C           7.85100        27.06300         9.10900
O           8.18900        27.85500         7.96100
H           8.05600        28.81100         8.22400
C           8.28000        25.61500         9.28400
O           7.74700        25.29400        10.57800
C           7.91500        23.99300        11.15900
O           7.03900        23.96300        12.29500
C           7.60800        24.26800        13.57700
C           7.13500        25.61000        14.11100
O           7.32900        26.66100        13.15400
H           7.18500        26.24800        12.25400
C           7.72000        25.86600        15.49000
O           7.00400        26.99200        16.01900
H           7.54200        27.33300        16.79000
C           7.87200        21.77500        14.43200
O           7.41600        21.02100        13.30000
H           7.54400        20.03900        13.43400
C           7.37000        23.19600        14.62800
O           7.79100        23.49600        15.96700
C           7.43600        24.77600        16.51000
O           8.38400        24.80500        17.58700
C           7.85200        24.48500        18.88100
C           8.48900        23.16600        19.28600
O           7.95900        22.21600        18.35100
H           8.08400        22.68100        17.47400
C           8.06600        22.75300        20.68700
O           8.71300        21.59900        21.24300
H           8.45800        21.41700        22.19300
C           7.93400        26.94500        19.55000
O           8.22200        27.62100        18.31700
H           8.19100        28.60400        18.49600
C           8.43600        25.53400        19.81300
O           8.08400        25.18800        21.16100
C           8.36400        23.87500        21.66800
O           7.61300        23.72200        22.88100
C           8.19600        24.06100        24.14800
C           7.55000        25.39200        24.49500
O           7.97300        26.41300        23.58100
H           7.84600        26.15000        22.62500
C           8.01600        25.86500        25.86200
O           7.50700        27.12000        26.33500
H           7.79200        27.23500        27.28700
C           8.40400        21.71400        24.99000
O           8.09300        21.01300        23.77700
H           7.96100        20.03400        23.93400
C           7.81500        23.09000        25.25300
O           8.26000        23.50500        26.55200
C           7.64500        24.76800        26.84700
O           8.32400        25.05000        28.08000
C           7.82100        24.77800        29.39700
C           8.24100        23.39700        29.87100
O           7.86800        22.35500        28.95800
H           8.05900        22.74700        28.05800
C           7.78800        23.01400        31.27100
O           8.48100        21.85600        31.76000
H           8.11400        21.53300        32.63300
C           7.90000        27.14600        30.20300
O           7.92000        27.85900        28.95700
H           7.86200        28.83600        29.16400
C           8.32500        25.71400        30.48300
O           7.80700        25.49700        31.80400
C           8.11400        24.15800        32.21700
O           7.24900        23.97000        33.34600
C           7.84700        24.34700        34.59500
C           7.32600        25.68100        35.10400
O           7.85700        26.68000        34.22100
H           7.80300        26.28200        33.30600
C           7.85900        26.05700        36.47700
O           7.33500        27.30000        36.96700
H           7.63000        27.52600        37.89600
C           8.22800        21.93700        35.26800
O           7.60600        21.24700        34.17400
H           7.74600        20.28200        34.39900
C           7.55000        23.25400        35.60900
O           7.90600        23.60100        36.95500
C           7.51600        24.90600        37.40700
O           8.32000        25.11700        38.57700
C           7.79000        24.78900        39.86900
C           8.35100        23.44500        40.30200
O           8.26700        22.44700        39.27400
H           8.43500        22.94600        38.42400
C           7.88200        23.01600        -0.38800
O           8.54900        21.81400         0.02500
H           8.34200        21.63800         0.98700
C           7.75800        27.25100        40.57400
O           8.52500        27.93600        39.57200
H           8.36600        28.91700        39.68300
C           8.19700        25.83200        -1.17200
O           7.65100        25.42000         0.08900
C           8.12700        24.16000         0.58300
O           7.40800        23.82500         1.77800
C           3.89800        20.78000         0.28700
C           4.20500        19.35200        42.77800
O           4.03000        18.33600        41.77900
H           4.24900        18.82800        40.93600
C           3.49200        19.07100         2.02000
O           3.49400        17.68900         2.40600
H           3.60100        17.61200         3.39700
C           3.91800        23.11900         1.34300
O           4.11200        23.82200         0.10700
H           3.87800        24.76900         0.32700
C           4.38500        21.67400         1.41600
O           3.88500        21.37500         2.72700
C           4.04700        19.99600         3.09100
O           3.29600        20.02500         4.31300
C           3.91600        20.23400         5.59000
C           3.32500        21.54900         6.07100