# freq=raman b3lyp/6-31+g(2d,p) geom=connectivity

493 8238/8238.com

0 1
C           8.19100         7.92800         2.88500
C           7.64700         9.24500         3.41500
O           7.92300        10.24800         2.42700
H           7.76500         9.83500         1.53000
C           8.12800         9.71000         4.78000
O           7.57900        10.88400         5.39500
H           7.91300        10.96200         6.33500
C           8.31500         5.49100         3.78000
O           7.90400         4.89100         2.54400
H           7.97000         3.89400         2.52200
C           7.89700         6.93700         3.99800
O           8.46700         7.28900         5.26700
C           7.99100         8.55200         5.75400
O           8.76800         8.82800         6.92900
C           8.17100         8.32500         8.13300
C           8.67300         6.98400         8.64100
O           8.53200         5.97700         7.62800
H           8.88000         6.43600         6.81000
C           8.03300         6.51900         9.94000
O           8.65800         5.35200        10.49200
H           8.16300         5.18200        11.34400
C           7.69100        10.73500         8.93500
O           8.19400        11.54700         7.86300
H           7.93400        12.51000         7.93300
C           8.30500         9.37500         9.22400
O           7.70800         8.84600        10.41700
C           8.25000         7.63100        10.95300
O           7.47900         7.50200        12.15700
C           7.92300         7.89500        13.46300
C           7.28300         9.22400        13.83000
O           7.57200        10.22900        12.84700
H           7.41100         9.87600        11.92500
C           7.79500         9.65000        15.19600
O           7.26200        10.89900        15.66200
H           7.56800        10.97900        16.61000
C           8.14200         5.49600        14.23300
O           7.81900         4.78200        13.03100
H           8.15300         3.85900        13.22400
C           7.52800         6.86000        14.50400
O           8.03400         7.28000        15.77900
C           7.52400         8.55000        16.20900
O           8.31400         8.76500        17.38700
C           7.82200         8.47500        18.70400
C           8.43900         7.14900        19.11500
O           8.08500         6.10000        18.20100
H           8.32500         6.48100        17.30800
C           7.99100         6.76600        20.51700
O           8.60100         5.56300        21.00700
H           8.29700         5.47600        21.95500
C           7.57100        10.84100        19.37700
O           7.71800        11.55600        18.14200
H           7.85800        12.52900        18.32800
C           8.32300         9.54900        19.65600
O           8.02800         9.10500        20.98800
C           8.53400         7.84200        21.44400
O           7.76200         7.68600        22.64300
C           8.20900         7.91700        23.98700
C           8.00000         9.33500        24.49500
O           8.53000        10.33500        23.61300
H           8.19400        10.03600        22.72000
C           8.45500         9.65300        25.91000
O           7.83600        10.80800        26.49400
H           8.22200        10.93600        27.40800
C           8.40500         5.55800        24.71700
O           7.79300         4.76500        23.69000
H           8.01000         3.84700        24.02200
C           7.72400         6.88900        24.99500
O           8.22000         7.17900        26.31000
C           7.95100         8.51000        26.77600
O           8.69200         8.62200        27.99900
C           8.09100         8.38200        29.27900
C           8.49900         7.01300        29.79900
O           8.22400         6.08200        28.74300
H           8.22700         6.60800        27.89200
C           7.86800         6.68100        31.14200
O           8.33400         5.42600        31.65900
H           7.99300         5.31200        32.59200
C           8.11000        10.77400        30.06700
O           8.71500        11.42200        28.93900
H           8.66100        12.39500        29.16000
C           8.53100         9.34500        30.37000
O           7.79900         9.08800        31.57700
C           8.25700         7.82000        32.06900
O           7.56100         7.70400        33.31900
C           8.19600         8.04600        34.56000
C           7.50900         9.32000        35.02400
O           7.86200        10.31600        34.05300
H           7.49800        10.13500        33.13900
C           8.00600         9.86200        36.35400
O           7.59200        11.13100        36.88100
H           7.83600        11.26800        37.84100
C           8.58800         5.65000        35.43600
O           8.08900         4.95000        34.28600
H           8.20900         3.96100        34.37200
C           8.03000         7.04100        35.68800
O           8.56600         7.51000        36.93300
C           7.87200         8.70200        37.32800
O           8.71500         8.91200        38.47000
C           8.13900         8.48600        39.71400
C           8.65600         7.15400        40.23300
O           8.49300         6.19100        39.18200
H           8.62800         6.68400        38.32300
C           8.12700         6.72900        -0.47700
O           8.78200         5.54400        -0.00200
H           8.34600         5.23600         0.84400
C           7.80800        10.85600        40.48500
O           8.01200        11.67600        39.32500
H           7.85900        12.65000        39.49400
C           8.40400         9.50100        -1.25500
O           7.89000         9.10200         0.02400
C           8.41800         7.85600         0.50000
O           7.56800         7.61400         1.63100
C           4.05700         4.21700         0.25400
C           4.26600         2.77000        42.75100
O           4.01500         1.72800        41.79700
H           4.14900         2.13800        40.89400
C           3.67100         2.48100         2.04900
O           4.10000         1.18200         2.48200
H           3.84100         1.07900         3.44300
C           3.93700         6.61000         1.00900
O           4.39700         7.34600        -0.13400
H           3.94500         8.23700        -0.10700
C           4.41600         5.20800         1.34900
O           3.78900         4.84800         2.58800
C           4.07600         3.52800         3.07400
O           3.35800         3.53400         4.31700
C           4.11300         3.84000         5.49800
C           3.66100         5.17900         6.05800
O           3.79500         6.22200         5.08200
H           3.57800         5.90700         4.15800
C           4.26900         5.61100         7.38200
O           3.98500         6.87500         7.99700
H           4.13400         6.73500         8.97600
C           4.48500         1.37400         6.36000
O           3.98700         0.72500         5.18100
H           4.05000        -0.25700         5.35500
C           3.92600         2.77300         6.56400
O           4.53800         3.22100         7.78200
C           3.96300         4.43300         8.29200
O           4.53100         4.61200         9.59700
C           3.91000         4.16500        10.81100
C           4.41400         2.80300        11.26000
O           4.17500         1.93100        10.14600
H           4.48000         2.45900         9.35400
C           3.77500         2.43600        12.59000
O           4.08100         1.16600        13.18400
H           3.85000         1.16800        14.15700
C           3.56400         6.55900        11.70500
O           4.09800         7.36100        10.64200
H           3.80800         8.30600        10.79100
C           4.20800         5.19500        11.88900
O           3.70400         4.78100        13.16700
C           4.19800         3.50100        13.58900
O           3.51400         3.32900        14.83800
C           4.23300         3.72700        16.01400
C           3.69500         5.06400        16.49700
O           3.95700         6.04700        15.48500
H           3.68700         5.75400        14.56800
C           4.42200         5.44400        17.77700
O           4.16900         6.75600        18.29900
H           4.40700         6.89900        19.26000
C           4.41100         1.27100        16.85800
O           4.04000         0.44300        15.74600
H           4.30100        -0.51900        15.82100
C           3.97400         2.70500        17.10900
O           4.65900         3.03400        18.32700
C           4.21500         4.32100        18.78000
O           4.89500         4.45900        20.03600
C           4.07300         4.21900        21.18800
C           4.44600         2.82100        21.65400
O           4.21300         1.75700        20.72000
H           4.47200         2.19200        19.85800
C           3.88000         2.47700        23.02200
O           4.13500         1.13800        23.47200
H           3.96800         1.06800        24.45500
C           3.72000         6.50500        21.90600
O           4.05100         7.36700        20.80800
H           4.21000         8.33000        21.02600
C           4.42500         5.21200        22.28300
O           3.95600         4.82300        23.58200
C           4.36200         3.51800        24.01800
O           3.69300         3.45700        25.28600
C           4.26100         3.86600        26.53900
C           3.83700         5.22900        27.06100
O           4.07000         6.18100        26.01300
H           3.78200         5.72700        25.17000
C           4.49400         5.60500        28.37900
O           4.35100         6.93500        28.89800
H           4.50900         6.96000        29.88500
C           4.58300         1.47700        27.35200
O           4.03200         0.75600        26.24000
H           4.31400        -0.20300        26.20500
C           4.00200         2.85200        27.64100
O           4.52800         3.23100        28.92100
C           4.10400         4.52400        29.37500
O           4.70300         4.76700        30.65600
C           3.96700         4.47900        31.85300
C           4.36600         3.10700        32.37300
O           4.16700         2.06100        31.41200
H           4.46100         2.35200        30.50100
C           3.62500         2.75400        33.65300
O           4.19600         1.54600        34.17700
H           3.96900         1.34000        35.12900
C           3.69600         6.83500        32.65200
O           4.19000         7.48400        31.47100
H           4.19600         8.47400        31.60800
C           4.22200         5.45000        32.99400
O           3.68500         5.07600        34.27100
C           4.02300         3.75700        34.72300
O           3.33700         3.59400        35.97300
C           4.15700         3.93600        37.10000
C           3.88400         5.34600        37.59700
O           4.00300         6.40200        36.63200
H           3.82500         5.96600        35.75000
C           4.54100         5.52800        38.95600
O           4.13500         6.81000        39.45600
H           4.44300         6.94900        40.39800
C           4.08300         1.45000        37.90100
O           3.78500         0.79900        36.65700
H           3.80300        -0.17700        36.87400
C           3.75900         2.91400        38.15200
O           4.41600         3.13600        39.40800
C           4.16400         4.44100        39.94800
O           4.89300         4.46600        41.18400
C           7.82700        16.18700         2.97200
C           7.42600        17.53900         3.53900
O           7.97600        18.59300         2.73500
H           7.60500        18.40200         1.82600
C           7.88300        17.83500         4.95800
O           7.34100        19.03400         5.53200
H           7.78900        19.29900         6.38600
C           7.93700        13.78400         3.64800
O           7.63400        13.08300         2.43300
H           7.82500        12.11200         2.57500
C           7.30000        15.13400         3.93300
O           7.74800        15.36900         5.27600
C           7.46900        16.66200         5.83200
O           8.36300        16.63000         6.95400
C           7.75900        16.44100         8.24200
C           8.29900        15.09600         8.70100
O           7.76200        14.02300         7.91400
H           7.81200        14.32400         6.96200
C           7.82000        14.76100        10.10400
O           8.38900        13.54800        10.61900
H           8.03400        13.35300        11.53300
C           7.98600        18.88400         9.05700
O           8.36300        19.65300         7.90600
H           8.09300        20.57900         8.16900
C           8.36400        17.42200         9.23200
O           7.91500        17.13200        10.56400
C           8.20300        15.83600        11.10800
O           7.35700        15.73500        12.26300
C           8.01400        16.05100        13.49900
C           7.35200        17.33600        13.96800
O           7.36700        18.31200        12.91500
H           7.19400        17.96900        11.99200
C           7.94400        17.85000        15.27100
O           7.14000        18.91400        15.80000
H           7.48100        19.16200        16.70700
C           8.19100        13.59400        14.20500
O           7.56500        12.89000        13.12300
H           7.71100        11.90100        13.16800
C           7.79600        15.01200        14.58700
O           8.46600        15.51500        15.75200
C           7.91000        16.72300        16.29000
O           8.67800        16.92500        17.48500
C           8.10800        16.59600        18.76000
C           8.67200        15.26800        19.24000
O           8.17800        14.27000        18.33500
H           8.35700        14.55500        17.39400
C           8.13000        14.94800        20.62400
O           8.49200        13.62800        21.05400
H           8.18200        13.48700        21.99400
C           7.82800        18.94800        19.60000
O           8.23400        19.68700        18.43900
H           7.84700        20.59500        18.60000
C           8.47900        17.59600        19.84300
O           7.99600        17.22900        21.14300
C           8.49200        15.98900        21.67000
O           7.72800        15.86700        22.87900
C           8.41100        16.20800        24.09500
C           7.65500        17.37500        24.70900
O           7.89100        18.47600        23.82000
H           7.67200        18.21600        22.88000
C           8.00200        17.75900        26.13800
O           7.41400        18.94800        26.68500
H           7.73300        19.30900        27.56100
C           8.79900        13.78200        24.77000
O           8.25900        13.02300        23.67800
H           8.53600        12.06900        23.79500
C           8.05100        15.07700        25.04400
O           8.60600        15.39600        26.32800
C           8.00000        16.50800        27.00200
O           8.80800        16.72900        28.16600
C           8.11200        16.41100        29.38000
C           8.84400        15.18200        29.89400
O           8.91500        14.07400        28.98500
H           9.14500        14.43200        28.07900
C           8.29900        14.73900        31.24200
O           9.08700        13.68600        31.81700
H           8.73300        13.53900        32.74100
C           7.69800        18.88400        29.95300
O           8.29400        19.73800        28.96700
H           8.33600        20.70000        29.23700
C           8.26400        17.54100        30.38600
O           7.72300        17.07000        31.62900
C           8.41200        15.93500        32.17300
O           7.58300        15.76000        33.33000
C           8.25200        16.09800        34.55300
C           7.53000        17.37000        34.96600
O           7.63900        18.41700        33.99000
H           7.57100        17.95700        33.10500
C           8.04500        17.88600        36.30000
O           7.40700        19.11500        36.67500
H           7.71800        19.36900        37.59100
C           8.55500        13.77900        35.50100
O           8.43400        13.08500        34.25000
H           8.58000        12.11000        34.41600
C           7.90700        15.14200        35.68300
O           8.26900        15.58500        36.99900
C           7.69400        16.85100        37.35600
O           8.51500        17.09300        38.50800
C           7.75900        16.73500        39.67500
C           8.06400        15.33500        40.18200
O           7.62700        14.28300        39.30900
H           7.90800        14.60100        38.40400
C           7.61000        14.98500        -0.48100
O           8.30900        13.80800        -0.05100
H           8.05600        13.56800         0.88600
C           7.64500        19.17300        40.40900
O           7.94800        19.86300        39.18700
H           8.02900        20.85300        39.29600
C           8.08200        17.76100        -1.32100
O           7.40700        17.37800        -0.11400
C           7.87200        16.14800         0.46200
O           7.16400        16.05000         1.70600
C           3.83000        12.28300         0.38100
C           4.09800        10.85800        42.91700
O           3.65100         9.97600        41.87700
H           3.81500        10.40900        40.99000
C           3.42600        10.52400         2.16900
O           3.84100         9.26100         2.70900
H           3.36100         9.14100         3.57800
C           3.56000        14.71100         1.17600
O           4.22700        15.53100         0.20500
H           4.11200        16.52200         0.27300
C           4.04400        13.30400         1.48600
O           3.39800        12.90000         2.70200
C           3.81900        11.60700         3.16100
O           3.17500        11.39600         4.42500
C           3.70900        11.86600         5.67100
C           3.40400        13.26100         6.19300
O           3.60700        14.27300         5.19600
H           3.33500        13.80500         4.35500
C           4.17200        13.54400         7.47400
O           3.73100        14.79100         8.03000
H           4.11100        14.82500         8.95400
C           4.04500         9.52000         6.33200
O           3.47300         8.81100         5.22300
H           3.82900         7.87700         5.25700
C           3.46000        10.85100         6.77500
O           4.06500        11.24800         8.01400
C           3.74900        12.54500         8.54000
O           4.63100        12.62200         9.66900
C           3.84400        12.33800        10.83500
C           4.09000        10.96700        11.44500
O           3.78200         9.90800        10.52800
H           3.94300        10.17600         9.57800
C           3.41000        10.67500        12.77300
O           3.68900         9.39300        13.35300
H           3.42800         9.31900        14.31600
C           3.89200        14.80100        11.69600
O           4.33500        15.54200        10.55000
H           4.12200        16.51500        10.63400
C           4.14600        13.32400        11.95100
O           3.48100        13.09600        13.20200
C           3.80900        11.79700        13.71800
O           3.05600        11.70800        14.93600
C           3.81700        11.96300        16.12500
C           3.66800        13.41200        16.55800
O           4.18900        14.29500        15.55400
H           3.97200        13.99300        14.62600
C           4.24100        13.78800        17.91400
O           3.87600        15.11300        18.32800
H           4.07900        15.20700        19.30200
C           3.63400         9.55200        17.01000
O           3.21300         8.83500        15.84000
H           3.40800         7.87500        16.03900
C           3.31900        11.02500        17.21300
O           3.93600        11.35300        18.46700
C           3.71500        12.71700        18.85500
O           4.50500        12.85300        20.04500
C           3.86000        12.48200        21.27300
C           4.40600        11.12900        21.69800
O           4.20100        10.10600        20.71400
H           4.45400        10.42500        19.80100
C           3.94700        10.81400        23.11300
O           4.50300         9.54900        23.50000
H           4.17200         9.29300        24.40800
C           3.69800        14.96200        22.10700
O           3.96400        15.63500        20.86700
H           3.67100        16.57500        21.04000
C           4.20900        13.54400        22.30300
O           3.84400        13.17200        23.64000
C           4.39300        11.91500        24.06100
O           3.67100        11.79900        25.29600
C           4.32200        11.91800        26.56900
C           4.05500        13.36700        26.94300
O           4.67900        14.34700        26.10100
H           4.39600        14.05200        25.18900
C           4.28800        13.73600        28.39900
O           3.81100        15.00100        28.87800
H           4.13100        15.13900        29.81600
C           3.95800         9.61200        27.29900
O           3.83900         8.95100        26.03000
H           4.07000         7.98800        26.16900
C           3.63400        11.06200        27.62000
O           4.04200        11.30600        28.97400
C           3.84000        12.66700        29.38200
O           4.41600        12.77800        30.69200
C           3.68800        12.61200        31.91700
C           3.88200        11.18100        32.39200
O           3.52100        10.17400        31.43600
H           3.81000        10.56900        30.56400
C           3.36800        10.93100        33.80000
O           3.92500         9.69800        34.27600
H           3.62900         9.57300        35.22300
C           3.79500        14.94700        32.59000
O           4.37700        15.58100        31.44200
H           4.06800        16.52000        31.29300
C           4.13100        13.53400        33.04100
O           3.53200        13.30800        34.32500
C           3.81400        11.98400        34.80200
O           3.03500        11.92100        36.00500
C           3.79000        12.05400        37.21900
C           3.60000        13.49000        37.67800
O           4.28300        14.41900        36.82400
H           4.07300        14.16400        35.88000
C           4.04500        13.80800        39.09600
O           3.40400        14.94600        39.69000
H           3.61300        14.91300        40.66700
C           3.80800         9.69100        38.05800
O           3.48700         9.00100        36.84200
H           3.81500         8.05900        36.91400
C           3.31600        11.10700        38.30900
O           3.95300        11.38500        39.56400
C           3.69900        12.70100        40.07900
O           4.51000        12.71200        41.26300
C           7.90100        24.23000         2.95900
C           7.28600        25.49800         3.52800
O           7.36200        26.60400         2.61700
H           7.24300        26.10900         1.75600
C           7.87500        25.95900         4.85100
O           7.25800        27.18500         5.26900
H           7.65700        27.29300         6.17900
C           8.14700        21.78500         3.78600
O           7.68700        21.11200         2.60500
H           8.02700        20.17200         2.65000
C           7.58100        23.17800         4.00800
O           8.24900        23.61300         5.20200
C           7.68000        24.78700         5.79900
O           8.48800        25.00600         6.96400
C           7.80500        24.69000         8.18700
C           8.50300        23.46000         8.74300
O           8.47600        22.37800         7.80000
H           8.69700        22.75200         6.90000
C           8.05600        22.93500        10.09800
O           8.64900        21.84000        10.81100
H           8.16400        21.79800        11.68500
C           7.66700        27.08100         8.78100
O           8.22600        27.75200         7.64200
H           8.13100        28.74400         7.73000
C           8.08500        25.70700         9.28100
O           7.33500        25.29000        10.43000
C           8.02100        24.16200        10.99400
O           7.21100        23.99400        12.16600
C           7.83600        24.31900        13.41600
C           7.35900        25.66500        13.93700
O           7.52400        26.64300        12.90000
H           7.12000        26.24400        12.07700
C           7.90200        26.05700        15.30200
O           7.23600        27.19300        15.87200
H           7.75400        27.44700        16.68800
C           7.94800        21.80900        14.25100
O           7.43500        21.23900        13.03800
H           7.45400        20.24000        13.02500
C           7.59500        23.26900        14.48800
O           8.20600        23.60800        15.74100
C           7.65700        24.85300        16.19700
O           8.37900        25.17900        17.39400
C           7.98300        24.70700        18.69000
C           8.45500        23.34600        19.17600
O           7.85200        22.42500        18.25600
H           8.09800        22.66700        17.31700
C           8.02000        23.04800        20.60200
O           8.85200        22.05900        21.22600
H           8.36200        21.75400        22.04200
C           7.88000        27.13300        19.32000
O           8.49100        27.91900        18.28700
H           8.15900        28.83600        18.50900
C           8.41800        25.76200        19.69500
O           7.92200        25.49200        21.01400
C           8.30400        24.21200        21.53800
O           7.56200        23.98200        22.74400
C           8.04600        24.36400        24.04000
C           7.41800        25.66600        24.51000
O           7.81500        26.74200        23.64800
H           7.85200        26.46600        22.68700
C           7.88400        26.04700        25.90600
O           6.93500        26.99200        26.41900
H           7.19600        27.22900        27.35400
C           8.44700        21.94400        24.75900
O           7.91300        21.20900        23.64800
H           8.30800        20.29100        23.66400
C           7.79900        23.28100        25.07800
O           8.40900        23.66000        26.32100
C           7.83100        24.86000        26.85400
O           8.62200        25.13800        28.01800
C           7.96200        24.82100        29.25200
C           8.27200        23.47200        29.88100
O           8.13500        22.35000        28.99800
H           8.34100        22.70300        28.08500
C           7.42000        23.21800        31.11300
O           7.76200        21.94600        31.68300
H           7.43800        21.81000        32.62000
C           8.38100        27.25700        29.95600
O           7.31200        28.02800        29.38700
H           7.49700        29.01000        29.40100
C           8.29300        25.79700        30.36900
O           7.49400        25.58400        31.54200
C           7.74300        24.29900        32.13200
O           6.90100        24.28600        33.29300
C           7.55700        24.56900        34.53800
C           7.02700        25.86300        35.13300
O           7.30700        26.84400        34.12400
H           6.90100        26.56400        33.25400
C           7.71700        26.22700        36.43800
O           7.03400        27.31900        37.07100
H           7.56300        27.56700        37.88300
C           7.93300        22.18100        35.16000
O           7.22500        21.41600        34.17300
H           7.43700        20.44400        34.27300
C           7.33000        23.50500        35.60000
O           8.06300        23.86000        36.78100
C           7.59500        25.06300        37.40800
O           8.41500        25.13200        38.58300
C           7.74500        24.74600        39.79300
C           8.38100        23.45500        40.28200
O           8.36600        22.35500        39.36100
H           8.80900        22.65900        38.51700
C           7.94300        22.99500        -0.40700
O           8.68500        21.89500         0.13900
H           8.28600        21.67300         1.02900
C           7.78500        27.16200        40.73400
O           8.15000        27.80100        39.50200
H           8.01900        28.77800        39.67300
C           8.12000        25.69400        -1.15100
O           7.51600        25.37200         0.11100
C           8.12900        24.15400         0.55800
O           7.31700        23.85400         1.70300
C           3.69000        20.48900         0.33100
C           4.12500        19.10700        42.87000
O           3.76300        18.15100        41.86200
H           3.99400        18.52600        40.96500
C           3.56100        18.78900         2.17500
O           3.83400        17.47600         2.68800
H           3.49600        17.45200         3.62900
C           3.57300        22.92300         1.20800
O           4.23100        23.58000         0.11600
H           4.03000        24.55900         0.10300
C           4.04700        21.49300         1.41500
O           3.43700        21.17700         2.67500
C           3.79700        19.89000         3.19600
O           3.01000        19.65200         4.37200
C           3.66300        20.02100         5.59500