# freq=raman b3lyp/6-31+g(2d,p) geom=connectivity
	      
280 6000.com
	      
0 1
C           8.07800         8.05100         3.01700
C           7.65500         9.39000         3.59900
O           8.03500        10.34400         2.59700
H           7.86000         9.93900         1.69900
C           8.29100         9.71700         4.94000
O           7.80000        10.95900         5.46500
H           8.07500        11.05600         6.42200
C           8.21200         5.62100         3.69300
O           7.72800         4.94300         2.52500
H           7.95400         3.98200         2.68200
C           7.77700         7.02100         4.09400
O           8.31400         7.25600         5.40300
C           7.98500         8.56700         5.88600
O           8.81100         8.64500         7.05700
C           8.22300         8.32300         8.32600
C           8.87700         7.11400         8.97500
O           8.96100         6.05600         8.00800
H           8.68000         6.44100         7.12900
C           8.12500         6.69500        10.22700
O           8.66000         5.50200        10.81900
H           8.06100         5.43700        11.61700
C           7.71500        10.74300         8.92100
O           8.49300        11.49100         7.97500
H           8.23600        12.45100         8.08500
C           8.24400         9.40000         9.39800
O           7.58500         8.97300        10.59900
C           8.25300         7.85400        11.20100
O           7.50300         7.63000        12.40400
C           8.11500         7.96600        13.65800
C           7.58700         9.29500        14.17200
O           7.78100        10.30800        13.17400
H           7.52700         9.96500        12.26900
C           8.17000         9.73300        15.50600
O           7.58200        10.93000        16.03500
H           7.98000        11.14400        16.92700
C           8.21700         5.46200        14.51700
O           7.50300         5.00400        13.36000
H           7.69600         4.02500        13.28600
C           7.92000         6.93400        14.75700
O           8.65100         7.34900        15.92000
C           8.05400         8.54300        16.44500
O           8.84700         8.75200        17.62300
C           8.32200         8.41800        18.91600
C           8.74000         7.03900        19.40200
O           8.55100         6.04200        18.38700
H           8.78900         6.39900        17.48400
C           8.19300         6.76200        20.79300
O           8.60700         5.49900        21.33400
H           8.11200         5.19500        22.14800
C           8.08000        10.75100        19.51000
O           8.59900        11.48600        18.39200
H           8.42500        12.47000        18.43500
C           8.71400         9.44600        19.96400
O           8.10400         9.17200        21.23400
C           8.51400         7.89700        21.75000
O           7.63900         7.81800        22.88500
C           8.33500         8.12900        24.10000
C           7.65100         9.40900        24.55300
O           7.87700        10.50400        23.65300
H           7.99000        10.17200        22.71600
C           7.95300         9.70700        26.01200
O           6.94300        10.62900        26.44600
H           7.13300        11.09700        27.31000
C           8.43800         5.58600        24.84600
O           7.88300         4.81100        23.77300
H           7.87500         3.85500        24.06600
C           8.04800         7.03100        25.11000
O           8.62500         7.39900        26.37200
C           7.91300         8.50700        26.94300
O           8.68400         8.77900        28.12200
C           7.98800         8.42600        29.32600
C           8.47300         7.06900        29.80900
O           8.36700         6.03200        28.82300
H           8.52200         6.37700        27.89700
C           7.94300         6.70800        31.18700
O           8.62400         5.62900        31.84400
H           8.23000         5.39800        32.73300
C           7.59600        10.90100        30.09500
O           7.69200        11.66900        28.88700
H           7.73800        12.62900        29.16300
C           8.18100         9.52400        30.36000
O           7.59100         9.03400        31.57400
C           8.18100         7.86000        32.15000
O           7.42700         7.55600        33.33300
C           8.06500         7.93200        34.56200
C           7.46500         9.23100        35.07600
O           7.61400        10.25600        34.08300
H           7.34800         9.81900        33.22300
C           8.08600         9.67100        36.39100
O           7.63600        10.89700        36.98600
H           8.07400        10.89300        37.88500
C           8.31400         5.48100        35.27000
O           7.74800         4.81000        34.13500
H           8.13400         3.88900        34.19400
C           7.80900         6.87100        35.61900
O           8.39300         7.31400        36.85300
C           7.78300         8.52000        37.33600
O           8.55800         8.77000        38.51800
C           7.93400         8.45500        39.77100
C           8.58200         7.19300        40.31700
O           8.43400         6.09400        39.40600
H           8.59100         6.41400        38.47200

