# freq=raman b3lyp/6-31+g(2d,p) geom=connectivity

450 8450/8450.com

0 1
 O                 10.22900000    7.76800000   11.71400000
 C                 11.12000000    7.99100000   12.81700000
 C                 11.31300000    9.45000000   13.19500000
 O                 12.30300000   10.13800000   12.41700000
 H                 12.40800000    9.62300000   11.56600000
 C                 11.79500000    9.63900000   14.62400000
 O                 11.63600000   10.98100000   15.10800000
 H                 12.18300000   11.45700000   14.41900000
 C                  9.98500000    5.70800000   13.51900000
 O                  9.33300000    4.94300000   14.54200000
 H                  9.04100000    4.06700000   14.15800000
 C                 10.36000000    7.14800000   13.82800000
 O                 11.11200000    7.28300000   15.04200000
 C                 11.22100000    8.60800000   15.58200000
 O                 11.98900000    8.38700000   16.77400000
 C                 11.21700000    8.54600000   17.97300000
 C                 10.47900000    7.26900000   18.34000000
 O                  9.41200000    6.91800000   17.44600000
 H                  9.80500000    6.87700000   16.52700000
 C                  9.91400000    7.37000000   19.74700000
 O                  9.18100000    6.15100000   19.93800000
 H                  8.51100000    6.18800000   19.19700000
 C                 12.84500000   10.32500000   18.90800000
 O                 11.91200000   11.37300000   19.20700000
 H                 12.05500000   12.21000000   18.67800000
 C                 12.25100000    8.93000000   19.01900000
 O                 11.91100000    8.63600000   20.38200000
 C                 11.10500000    7.48800000   20.68500000
 O                 10.45100000    7.84400000   21.91300000
 H                 11.11107229    8.03809029   22.58250245
 H                 11.67013071    6.58289882   20.76449304
 H                  9.27070606    8.22021964   19.83755097
 H                 11.18923075    6.46877652   18.32929222
 H                 10.51636512    9.34495982   17.84780424
 H                 13.07510473    8.28004308   18.81089570
 H                 13.20634910   10.46387206   17.91048239
 H                 13.67051120   10.39944418   19.58467520
 H                 10.73995721    7.60694511   10.91739216
 H                 10.88214851    5.19053958   13.25018917
 H                  9.34290548    5.71735893   12.66312206
 H                  9.43288962    7.65603139   13.99313765
 H                 12.06889451    7.54114270   12.61174985
 H                 10.37737704    9.95643024   13.08081553
 H                 12.84978339    9.46064180   14.60118894
 H                 10.24308582    8.93280362   15.87024721

 1 2 1.0 38 1.0
 2 3 1.0 12 1.0 42 1.0
 3 4 1.0 6 1.0 43 1.0
 4 5 1.0
 5
 6 7 1.0 14 1.0 44 1.0
 7 8 1.0
 8
 9 10 1.0 12 1.0 39 1.0 40 1.0
 10 11 1.0
 11
 12 13 1.0 41 1.0
 13 14 1.0
 14 15 1.0 45 1.0
 15 16 1.0
 16 17 1.0 26 1.0 34 1.0
 17 18 1.0 20 1.0 33 1.0
 18 19 1.0
 19
 20 21 1.0 28 1.0 32 1.0
 21 22 1.0
 22
 23 24 1.0 26 1.0 36 1.0 37 1.0
 24 25 1.0
 25
 26 27 1.0 35 1.0
 27 28 1.0
 28 29 1.0 31 1.0
 29 30 1.0
 30
 31
 32
 33
 34
 35
 36
 37
 38
 39
 40
 41
 42
 43
 44
 45

