# freq=raman b3lyp/6-31+g(2d,p) geom=connectivity

280 9000/9000.com

0 1
C           8.31200         7.89500         2.98900
C           7.78900         9.26200         3.39800
O           8.17300        10.23600         2.41700
H           8.06600         9.79500         1.52600
C           8.24500         9.66600         4.79100
O           7.50800        10.80500         5.25900
H           7.92200        11.04200         6.13800
C           8.64500         5.54100         3.74000
O           8.31700         4.77500         2.57200
H           8.58300         3.82800         2.74900
C           8.00100         6.87700         4.07400
O           8.63400         7.21100         5.31700
C           8.05700         8.46600         5.70600
O           8.75900         8.82400         6.90600
C           8.19300         8.56800         8.19900
C           8.79800         7.26300         8.69100
O           8.46500         6.21300         7.77100
H           8.57800         6.56700         6.84200
C           8.28700         6.85500        10.06300
O           8.81800         5.63700        10.60500
H           8.54700         5.42300        11.54400
C           8.01100        11.00000         8.93900
O           8.25000        11.65700         7.68600
H           8.13400        12.63800         7.84100
C           8.57600         9.61900         9.22700
O           8.00400         9.29200        10.50200
C           8.52800         8.04400        10.97900
O           7.80700         7.74300        12.18300
C           8.28300         8.10000        13.48900
C           7.82200         9.48700        13.90500
O           8.16600        10.46700        12.91400
H           7.99600        10.07000        12.01200
C           8.32300         9.80500        15.30400
O           7.96400        11.10900        15.78400
H           8.40800        11.27500        16.66400
C           8.52700         5.60600        14.20700
O           8.13900         4.93300        13.00100
H           8.10000         3.94300        13.13900
C           7.95300         6.98900        14.47200
O           8.43300         7.36700        15.77000
C           7.95300         8.64500        16.21400
O           8.58900         8.80700        17.49000
C           7.96300         8.51700        18.74800
C           8.37000         7.07700        19.01400
O           7.91900         6.05400        18.11500
H           8.21000         6.20800        17.17100
C           7.92500         6.69100        20.41500
O           8.64500         5.53500        20.86600
H           8.47600         5.37200        21.83800
C           8.12500        10.87400        19.68100
O           8.72900        11.50700        18.54400
H           8.63000        12.50100        18.59700
C           8.53300         9.41700        19.83200
O           8.00000         8.98900        21.09400
C           8.43700         7.67200        21.45800
O           7.60600         7.60800        22.62700
C           8.33800         7.84800        23.83700
C           7.76200         9.08800        24.50200
O           7.73100        10.16200        23.55000
H           7.78200         9.74100        22.64400
C           8.31900         9.55200        25.83800
O           7.50800        10.62000        26.35000
H           7.92600        10.89700        27.21500
C           8.63200         5.39200        24.60600
O           8.25100         4.62800        23.45300
H           8.12900         3.69600        23.79400
C           8.13800         6.79600        24.91600
O           8.70400         7.12400        26.19300
C           8.19500         8.34400        26.75100
O           8.93600         8.55000        27.96300
C           8.16800         8.41000        29.16700
C           8.45300         6.96000        29.52000
O           7.90100         6.01800        28.58900
H           8.25600         6.26400        27.68700
C           8.16700         6.65100        30.98100
O           8.79000         5.39200        31.27500
H           8.67100         5.22500        32.25400
C           8.14600        10.81200        30.12700
O           8.23800        11.52500        28.88600
H           8.11400        12.48900        29.12100
C           8.63000         9.37600        30.24600
O           8.17700         9.03600        31.56500
C           8.58800         7.72300        31.97300
O           7.86300         7.56600        33.20100
C           8.52800         7.93500        34.41800
C           8.03100         9.22400        35.04900
O           8.04200        10.27000        34.06700
H           7.94600         9.93700        33.12900
C           8.73500         9.61000        36.34000
O           8.44500        10.92200        36.84400
H           8.30400        10.91800        37.83400
C           8.87100         5.56400        35.09200
O           8.40900         4.80800        33.96400
H           8.46500         3.84000        34.20700
C           8.26200         6.89700        35.49600
O           8.76500         7.24400        36.79400
C           8.29000         8.50500        37.28500
O           8.96500         8.83100        38.50900
C           8.34600         8.40500        39.73100
C           8.76100         7.03900        40.25300
O           8.42500         6.07000        39.24900
H           8.61700         6.41000        38.32900
C           8.13600         6.65800        -0.48400
O           8.87700         5.54700         0.04000
H           8.58900         5.45500         0.99300
C           7.69300        10.72400        40.44900
O           8.19200        11.48200        39.33800
H           7.85900        12.42500        39.32200
C           8.51100         9.48500        -1.28600
O           7.91100         8.99700        -0.07800
C           8.43700         7.78800         0.48800
O           7.71700         7.60600         1.71600
C           4.31400         4.08400         0.22800
C           4.74600         2.75200        42.88500
O           4.66200         1.79900        41.81500
H           5.08700         2.26500        41.03900
C           4.02400         2.43800         2.11500
O           4.46100         1.22200         2.74000
H           4.14800         1.11200         3.68300
C           4.02200         6.55600         1.08900
O           4.54500         7.28100        -0.03300
H           4.45700         8.26000         0.15200
C           4.43100         5.11400         1.34000
O           3.79500         4.82800         2.59400
C           4.21000         3.56000         3.12400
O           3.36600         3.49700         4.28300
C           4.01100         3.87000         5.50900
C           3.58800         5.24900         5.98900
O           3.71500         6.17900         4.90300
H           3.52800         5.55900         4.14100
C           4.18300         5.62300         7.33700
O           3.88000         6.91300         7.88900
H           4.34300         6.97200         8.77300
C           3.90800         1.42800         6.40800
O           3.84200         0.71000         5.16700
H           3.95300        -0.26700         5.34800
C           3.54800         2.89500         6.57900
O           4.14700         3.18100         7.85100
C           3.76500         4.49900         8.27100
O           4.48100         4.76800         9.48500
C           3.88100         4.44700        10.74900
C           4.22600         3.04000        11.21000
O           3.74400         2.00000        10.34600
H           4.32500         2.14500         9.54500
C           3.67100         2.73000        12.59000
O           4.33600         1.58500        13.14300
H           3.93300         1.28500        14.00700
C           3.78100         6.81900        11.58200
O           4.40500         7.44400        10.45100
H           4.10100         8.39600        10.47600
C           4.24700         5.40200        11.87300
O           3.51200         5.07700        13.06200
C           3.94700         3.82400        13.60900
O           3.24500         3.64100        14.84700
C           4.08800         3.80600        15.99600
C           3.81800         5.22100        16.48300
O           3.97400         6.27600        15.52300
H           3.66500         5.88700        14.65500
C           4.49300         5.54000        17.80600
O           4.29900         6.86100        18.33200
H           4.53900         6.90200        19.30200
C           3.86600         1.39900        16.85300
O           3.55200         0.83900        15.56900
H           3.52900        -0.15900        15.51100
C           3.60100         2.87600        17.09500
O           4.24400         3.15700        18.34700
C           3.98700         4.49700        18.79000
O           4.62500         4.53200        20.07400
C           3.85100         4.41500        21.27700
C           3.88800         2.95700        21.70400
O           3.44700         2.01200        20.71800
H           3.63200         2.43900        19.83300
C           3.32800         2.74500        23.10100
O           3.43800         1.40700        23.60800
H           3.04300         1.41600        24.52700
C           4.25100         6.78200        22.05700
O           4.39100         7.62200        20.90200
H           3.98200         8.47300        21.23200
C           4.45400         5.30500        22.35200
O           4.04200         5.01800        23.69700
C           4.10000         3.63200        24.06400
O           3.40400         3.72700        25.31600
C           4.20000         3.79000        26.50800
C           3.84400         5.15700        27.06900
O           4.16600         6.16900        26.10400
H           3.90100         5.79200        25.21600
C           4.49800         5.48000        28.40200
O           3.89100         6.69900        28.85400
H           4.10400         6.87500        29.81500
C           4.03700         1.26200        27.20600
O           3.33700         0.75500        26.06100
H           3.59800        -0.20800        26.12400
C           3.75800         2.72700        27.50000
O           4.40400         3.03000        28.74500
C           4.09300         4.31900        29.29600
O           4.82300         4.27600        30.53000
C           4.14000         4.05800        31.77300
C           4.37800         2.63400        32.24800
O           4.07900         1.60500        31.29400
H           4.49000         1.89300        30.42800
C           3.69200         2.40900        33.58600
O           4.11800         1.16200        34.15300
H           3.90900         1.14200        35.13100
C           4.05900         6.39200        32.35500
O           4.58300         7.12700        31.23900
H           4.41100         8.10200        31.38100
C           4.60800         5.05400        32.82200
O           3.95300         4.79500        34.07300
C           4.11200         3.46700        34.59300
O           3.43500         3.60200        35.85100
C           4.21900         3.82700        37.03100
C           4.03900         5.22600        37.59900
O           4.51000         6.14800        36.60600
H           4.20400         5.72000        35.75500
C           4.61300         5.48200        38.98300
O           3.87300         6.58700        39.52600
H           4.14600         6.74500        40.47500
C           4.19200         1.36700        37.83600
O           3.56300         0.75800        36.69900
H           3.71300        -0.23000        36.70700
C           3.88300         2.82700        38.12500
O           4.71400         3.10700        39.26100
C           4.42500         4.32900        39.95500
O           5.16700         4.37900        41.18200
C           8.13900        16.11800         2.72600
C           7.58200        17.43800         3.23400
O           7.74000        18.50800         2.29200
H           7.46100        18.27700         1.35900
C           8.10500        17.91200         4.58000
O           7.26100        18.99900         4.98400
H           7.52500        19.38400         5.86800
C           8.51500        13.75800         3.54900
O           7.83000        13.03000         2.52100
H           7.89900        12.03600         2.61000
C           7.98600        15.14400         3.88200
O           8.61500        15.59000         5.09300
C           7.97200        16.77600         5.58200
O           8.64900        17.05200         6.81600
C           8.01700        16.68000         8.05000
C           8.53800        15.35500         8.58200
O           8.39100        14.31700         7.60200
H           8.72900        14.70300         6.74400
C           7.98400        15.01600         9.95700
O           8.51900        13.75300        10.38000
H           8.34700        13.53400        11.34000
C           7.56600        19.06800         8.70500
O           8.17000        19.81100         7.63600
H           7.98200        20.79300         7.63800
C           8.21600        17.75400         9.10700
O           7.53500        17.35800        10.30600
C           8.10700        16.19100        10.91400
O           7.35800        16.03700        12.12800
C           7.94500        16.27000        13.41600
C           7.45500        17.60800        13.94500
O           7.75500        18.62800        12.98100
H           7.32500        18.44500        12.09600
C           7.87800        17.94600        15.36500
O           7.28600        19.17500        15.80900
H           7.62800        19.41400        16.71800
C           8.30600        13.89100        14.24000
O           8.05400        13.14200        13.04200
H           8.17800        12.15500        13.14300
C           7.65300        15.23900        14.49400
O           8.23600        15.60000        15.75500
C           7.59500        16.76900        16.28500
O           8.41400        17.00600        17.43900
C           7.91700        16.56600        18.71200
C           8.60400        15.27800        19.13400
O           8.35800        14.16600        18.26100
H           8.58200        14.44900        17.32800
C           8.06300        14.91900        20.50800
O           8.68100        13.71100        20.97200
H           8.33400        13.43000        21.86700
C           7.36500        18.87700        19.27900
O           7.91500        19.69500        18.23600
H           7.67200        20.65000        18.40200
C           8.13300        17.65300        19.75200
O           7.66500        17.26100        21.05100
C           8.21300        16.02700        21.53700
O           7.37800        15.85400        22.69100
C           8.10300        16.10500        23.90400
C           7.52100        17.42700        24.37700
O           7.74600        18.45400        23.40000
H           7.48100        18.04800        22.52500
C           8.15900        17.84600        25.69100
O           7.56900        19.04400        26.21500
H           7.92800        19.13600        27.14400
C           8.20100        13.70000        24.77900
O           7.49400        13.02100        23.73000
H           7.69100        12.04400        23.80700
C           7.70600        15.12100        24.99200
O           8.46700        15.51000        26.14500
C           7.95600        16.73000        26.70200
O           8.88000        16.79100        27.79900
C           8.22100        16.47500        29.03300
C           8.49500        15.10400        29.63100
O           8.07400        14.06700        28.73400
H           8.07800        14.26900        27.75400
C           7.90500        14.88800        31.01500
O           8.40400        13.61300        31.44500
H           8.40700        13.53300        32.44100
C           8.03500        18.89400        29.78300
O           8.40800        19.57500        28.57600
H           8.19000        20.55100        28.58500
C           8.54100        17.49900        30.11000
O           7.96400        17.31500        31.41100
C           8.32000        16.02600        31.93300
O           7.52600        15.85700        33.11600
C           8.26000        16.16800        34.30900
C           7.58300        17.45200        34.76000
O           7.76600        18.59200        33.90700
H           7.49700        18.33100        32.98000
C           7.99700        17.83900        36.17000
O           7.38400        19.00500        36.73800
H           7.86000        19.30400        37.56600
C           8.40800        13.66500        35.21500
O           8.03500        12.96000        34.02200
H           8.01500        11.99200        34.27300
C           8.00600        15.12100        35.38100
O           8.54000        15.57400        36.63400
C           7.77200        16.68100        37.12900
O           8.46800        17.00300        38.34200
C           7.79900        16.53800        39.52300
C           8.30400        15.17900        39.98100
O           8.05100        14.12700        39.03900
H           8.17300        14.45600        38.10200
C           7.94500        14.78200        41.40400
O           8.69300        13.64000        41.84500
H           8.33200        13.25100        42.69200
C           7.72300        18.88000        40.52400
O           8.40500        19.63200        39.50900
H           8.32100        20.59800        39.75300
C           8.07300        17.41400        -1.33800
O           7.38700        17.08600        -0.12100
C           8.06900        15.91100         0.34000
O           7.40200        15.65600         1.58400
C           3.87700        12.50600         0.23300
C           4.25500        11.11000        42.76100
O           3.89600        10.06100        41.85000
H           4.02800        10.41600        40.92400
C           3.79200        10.75600         2.09500
O           4.29300         9.45200         2.42300
H           4.01400         9.38600         3.38100
C           3.76100        14.96400         1.05300
O           3.79400        15.68800        -0.18600
H           3.75400        16.66500         0.02500
C           4.26300        13.54600         1.27200
O           3.86100        13.18800         2.60300
C           4.26100        11.87300         3.01300
O           3.48200        11.71900         4.20800
C           4.10000        11.99300         5.47400
C           3.70200        13.37300         5.97300
O           4.01000        14.34000         4.95900
H           3.68800        14.10400         4.04200
C           4.22300        13.69400         7.36500
O           3.56100        14.84700         7.90500
H           3.76700        14.98400         8.87300
C           4.04100         9.54800         6.15900
O           3.41700         8.80200         5.10400
H           3.56600         7.81400         5.14800
C           3.70800        10.98200         6.53900
O           4.34900        11.22900         7.79800
C           3.89100        12.50900         8.25800
O           4.57600        12.70400         9.50400
C           3.87500        12.43000        10.72600
C           4.32800        11.07800        11.25400
O           3.95800        10.08500        10.28600
H           4.26600        10.38800         9.38500
C           3.84700        10.71300        12.64900
O           4.06900         9.44500        13.28200
H           3.63500         9.37100        14.18000
C           3.75600        14.80700        11.52800
O           3.79600        15.55300        10.30300
H           3.63700        16.52400        10.48400
C           4.23100        13.39800        11.84300
O           3.78600        13.03700        13.15900
C           4.27600        11.77800        13.64400
O           3.60000        11.62800        14.90100
C           4.25400        12.10400        16.08600
C           3.73500        13.45800        16.54000
O           4.15000        14.46200        15.60300
H           3.87000        14.21200        14.67600
C           4.24500        13.85900        17.91500
O           3.67800        15.00700        18.56300
H           4.01600        15.06500        19.50200
C           4.08700         9.64500        16.89700
O           3.48900         8.90000        15.82500
H           3.97600         8.02900        15.75900
C           3.87900        11.12200        17.18500
O           4.55500        11.51000        18.39000
C           4.02500        12.73500        18.91500
O           4.69400        12.90500        20.17300
C           3.96300        12.46000        21.32500
C           3.99200        11.01200        21.78600
O           3.35700        10.16000        20.82100
H           3.81200        10.31500        19.94400
C           3.30800        10.83200        23.13100
O           3.57600         9.48900        23.55900
H           3.43700         9.45200        24.54800
C           3.82000        14.83100        22.15700
O           4.33700        15.62300        21.07700
H           3.96700        16.54900        21.14500
C           4.17600        13.39500        22.50400
O           3.40400        13.11700        23.68100
C           3.83900        11.83100        24.14700
O           3.18300        11.65500        25.41000
C           4.03200        11.91000        26.53900
C           3.66800        13.28400        27.07500
O           3.89600        14.28100        26.06800
H           3.74900        13.83000        25.18700
C           4.44100        13.60000        28.34500
O           4.18800        14.88000        28.94300
H           4.42100        14.84600        29.91500
C           4.25700         9.46300        27.21900
O           3.84900         8.75800        26.03800
H           4.30300         7.86600        26.02000
C           3.79400        10.85700        27.60900
O           4.43900        11.17700        28.85100
C           4.11000        12.48900        29.32800
O           4.76700        12.59000        30.59900
C           4.15900        12.21300        31.84400
C           4.59800        10.83600        32.31400
O           4.57100         9.76500        31.36000
H           4.83000        10.15700        30.47700
C           3.83900        10.52700        33.59500
O           4.26400         9.32200        34.24900
H           3.80100         9.16400        35.12100
C           3.86300        14.68400        32.52600
O           4.53200        15.46100        31.52300
H           4.52900        16.42800        31.77900
C           4.34900        13.29300        32.89700
O           3.58500        12.85600        34.03000
C           4.10400        11.64300        34.59300
O           3.37300        11.51400        35.82100
C           3.96900        11.93200        37.05800
C           3.57700        13.32900        37.51000
O           3.80800        14.31500        36.49300
H           3.43400        14.03800        35.60800
C           4.27000        13.62100        38.83100
O           3.92100        14.89100        39.40000
H           4.21600        14.93100        40.35500
C           4.33900         9.48000        37.94900
O           3.73900         8.72100        36.88900
H           4.10200         7.78900        36.87700
C           3.68200        10.84400        38.07900
O           4.32800        11.28000        39.28500
C           3.83400        12.52800        39.79300
O           4.50000        12.77700        41.03900
C           7.67600        24.22400         2.87000
C           7.16800        25.59700         3.27800
O           7.48900        26.57000         2.27300
H           7.26800        26.14800         1.39300
C           7.69100        25.95400         4.66000
O           7.07000        27.19300         5.03500
H           7.51100        27.48300         5.88500
C           8.31300        21.95200         3.65000
O           7.97100        21.12300         2.53000
H           7.89800        20.14200         2.70900
C           7.49300        23.19100         3.96900
O           8.06100        23.68700         5.19000
C           7.31400        24.83500         5.61700
O           8.06400        24.96300         6.83400
C           7.44700        24.76800         8.11500
C           7.95300        23.45700         8.69300
O           7.67600        22.40500         7.75700
H           7.84700        22.75700         6.83600
C           7.41100        23.08000        10.06200
O           8.09200        21.94000        10.60700
H           7.62300        21.67900        11.45000
C           7.12400        27.24100         8.86300
O           7.55400        27.94600         7.69000
H           7.74400        28.87300         8.01600
C           7.75200        25.87900         9.10700
O           7.11200        25.53900        10.34500
C           7.56600        24.31300        10.93700
O           6.90000        24.11400        12.19200
C           7.47500        24.47200        13.45700
C           6.89600        25.78500        13.95800
O           7.24100        26.79400        12.99800
H           6.89900        26.36500        12.16300
C           7.32800        26.12600        15.37500
O           6.64300        27.27500        15.89500
H           7.14100        27.67600        16.66500
C           7.68900        22.03500        14.11000
O           7.18700        21.24600        13.02300
H           7.56900        20.37800        13.34100
C           7.13400        23.40100        14.48000
O           7.64800        23.78600        15.76300
C           7.10500        24.97900        16.34800
O           8.06600        25.16500        17.39800
C           7.43800        24.85300        18.65000
C           7.97300        23.49800        19.08400
O           7.52500        22.36400        18.32600
H           7.53700        22.65000        17.36800
C           7.68300        23.14100        20.53300
O           8.35400        21.98300        21.05200
H           7.87800        21.82900        21.91800
C           7.33000        27.27200        19.33400
O           7.77900        27.92000        18.13400
H           7.90700        28.88600        18.36000
C           7.75400        25.86900        19.73500
O           7.30600        25.59100        21.07000
C           7.86700        24.32900        21.46200
O           7.12500        23.90200        22.61300
C           7.77400        24.27500        23.83800
C           7.06700        25.49300        24.41000
O           7.11500        26.59600        23.49400
H           6.95900        26.19400        22.59200
C           7.57400        26.01400        25.74500
O           6.77700        27.05900        26.32100
H           7.11200        27.22400        27.24900
C           8.34000        21.88800        24.64600
O           7.71600        21.25600        23.51800
H           7.83900        20.27500        23.66400
C           7.63300        23.20800        24.91100
O           8.24400        23.67000        26.12500
C           7.57600        24.81300        26.67700
O           8.36400        25.19100        27.81500
C           7.87800        24.72400        29.08200
C           8.37400        23.36800        29.55700
O           8.29700        22.40600        28.49500
H           8.62600        22.83800        27.65600
C           7.88600        23.06000        30.96300
O           8.31600        21.74900        31.35400
H           7.82000        21.51700        32.19100
C           7.55400        27.17600        29.80000
O           7.79100        27.79800        28.52800
H           7.60400        28.76800        28.68400
C           8.17500        25.82000        30.09200
O           7.79100        25.45500        31.42600
C           8.22500        24.18400        31.92900
O           7.51300        23.94800        33.15200
C           8.14800        24.23300        34.40700
C           7.52200        25.51500        34.93000
O           7.62200        26.55700        33.94900
H           7.48700        26.13300        33.05300
C           8.04100        25.90900        36.30300
O           7.41200        27.05800        36.88900
H           7.94200        27.41700        37.65700
C           8.18400        21.77100        35.09900
O           7.68800        21.10600        33.92800
H           7.69000        20.11600        34.06900
C           7.72300        23.18400        35.42100
O           8.37700        23.55700        36.64200
C           7.81500        24.73400        37.24000
O           8.49300        25.00200        38.47700
C           7.77600        24.67800        39.67800
C           8.35100        23.37300        40.20300
O           8.37500        22.32700        39.22100
H           8.77200        22.63800        38.35700
C           7.68900        22.89900        -0.58300
O           8.36400        21.74900        -0.05100
H           8.08400        21.50300         0.87700
C           7.77700        27.11100        40.69700
O           7.98800        27.68700        39.39900
H           7.83700        28.67000        39.50400
C           8.05200        25.62000        -1.23500
O           7.45000        25.21600         0.00400
C           7.90300        23.94700         0.49700
O           7.03800        23.85400         1.63900
C           3.63600        20.63400         0.12300
C           4.06900        19.24900        42.64000
O           3.46600        18.32900        41.72000
H           3.57100        18.73600        40.81300
C           3.61000        18.94700         1.98700
O           4.14900        17.71300         2.48500
H           3.66800        17.30900         3.26300
C           3.22200        22.96700         0.81300
O           3.55100        23.70800        -0.37100
H           3.49500        24.66800        -0.09700
C           3.90400        21.66700         1.20600
O           3.57000        21.31200         2.55500
C           4.06500        20.02600         2.95600
O           3.17300        20.03300         4.08000
C           3.67900        20.20700         5.41100