# freq=raman b3lyp/6-31+g(d,p) geom=connectivity

280K 6000ps cellobiose	      

0 1
O           8.10400         9.17200        21.23400
C           8.51400         7.89700        21.75000
O           7.63900         7.81800        22.88500
C           8.33500         8.12900        24.10000
C           7.65100         9.40900        24.55300
O           7.87700        10.50400        23.65300
H           7.99000        10.17200        22.71600
C           7.95300         9.70700        26.01200
O           6.94300        10.62900        26.44600
H           7.13300        11.09700        27.31000
C           8.43800         5.58600        24.84600
O           7.88300         4.81100        23.77300
H           7.87500         3.85500        24.06600
C           8.04800         7.03100        25.11000
O           8.62500         7.39900        26.37200
C           7.91300         8.50700        26.94300
O           8.68400         8.77900        28.12200
C           7.98800         8.42600        29.32600
C           8.47300         7.06900        29.80900
O           8.36700         6.03200        28.82300
H           8.52200         6.37700        27.89700
C           7.94300         6.70800        31.18700
O           8.62400         5.62900        31.84400
H           8.23000         5.39800        32.73300
C           7.59600        10.90100        30.09500
O           7.69200        11.66900        28.88700
H           7.73800        12.62900        29.16300
C           8.18100         9.52400        30.36000
O           7.59100         9.03400        31.57400

