# freq=raman b3lyp/6-31+g(d,p) geom=connectivity

350 5000.com

0 1
 O                  7.64800000    7.83700000   22.65600000
 C                  8.20500000    8.09100000   23.95400000
 C                  7.62700000    9.35800000   24.56400000
 O                  7.69800000   10.40600000   23.58700000
 H                  7.90800000   10.05200000   22.67600000
 C                  8.31100000    9.79500000   25.84900000
 O                  7.81400000   11.01000000   26.43000000
 H                  8.03800000   11.09100000   27.40100000
 C                  8.49700000    5.71800000   24.54700000
 O                  7.83900000    4.93100000   23.54400000
 H                  7.65100000    4.00400000   23.86900000
 C                  7.89600000    7.03800000   25.00500000
 O                  8.51400000    7.39800000   26.24900000
 C                  8.08700000    8.64500000   26.81700000
 O                  8.90600000    8.86300000   27.97400000
 C                  8.21800000    8.48800000   29.17600000
 C                  8.78300000    7.19000000   29.72900000
 O                  8.44300000    6.10600000   28.85200000
 H                  8.91600000    6.25900000   27.98500000
 C                  8.33300000    6.78200000   31.12200000
 O                  8.92400000    5.52900000   31.49600000
 H                  8.58700000    5.31900000   32.41400000
 C                  8.01300000   10.88500000   30.13500000
 O                  8.42100000   11.60000000   28.96000000
 H                  8.12200000   12.54500000   29.09300000
 C                  8.61700000    9.49400000   30.24300000
 O                  8.11400000    9.18100000   31.55000000
 C                  8.73400000    7.96400000   31.99000000
 O                  8.10500000    7.76500000   33.26400000
 H                  8.35794608    7.71290133   22.02182646
 H                  8.59869934    5.10053799   25.41492736
 H                  9.48169605    5.92914711   24.18548847
 H                  6.83807065    6.93942390   25.13136553
 H                  9.26603508    8.19676548   23.86501563
 H                  6.59532500    9.17834917   24.78370952
 H                  9.36028932    9.89948297   25.66740916
 H                  7.05587133    8.59121273   27.09767882
 H                  8.77817642    7.65937345   33.94022225
 H                  9.79586769    8.06110756   32.07892202
 H                  7.26753332    6.68417402   31.13252761
 H                  9.84915635    7.27941216   29.74370069
 H                  7.15741910    8.44328619   29.04157967
 H                  9.68363087    9.57025594   30.28019699
 H                  8.30186027   11.45044305   30.99623975
 H                  6.94686214   10.79455714   30.12662472

 1 2 1.0 30 1.0
 2 3 1.0 12 1.0 34 1.0
 3 4 1.0 6 1.0 35 1.0
 4 5 1.0
 5
 6 7 1.0 14 1.0 36 1.0
 7 8 1.0
 8
 9 10 1.0 12 1.0 31 1.0 32 1.0
 10 11 1.0
 11
 12 13 1.0 33 1.0
 13 14 1.0
 14 15 1.0 37 1.0
 15 16 1.0
 16 17 1.0 26 1.0 42 1.0
 17 18 1.0 20 1.0 41 1.0
 18 19 1.0
 19
 20 21 1.0 28 1.0 40 1.0
 21 22 1.0
 22
 23 24 1.0 26 1.0 44 1.0 45 1.0
 24 25 1.0
 25
 26 27 1.0 43 1.0
 27 28 1.0
 28 29 1.0 39 1.0
 29 38 1.0
 30
 31
 32
 33
 34
 35
 36
 37
 38
 39
 40
 41
 42
 43
 44
 45

