# freq=raman b3lyp/6-31+g(d,p) geom=connectivity

310 5000.com

0 1
O           7.76000         7.37200        22.67000
C           8.15700         7.67400        24.01600
C           7.65000         8.97600        24.61500
O           7.86000        10.05100        23.68800
H           7.45400         9.78700        22.81300
C           8.28700         9.39600        25.93000
O           7.76600        10.62200        26.46100
H           8.08500        10.86400        27.37800
C           8.52300         5.21300        24.73300
O           8.19500         4.54900        23.50400
H           8.16000         3.56000        23.65200
C           7.98000         6.59300        25.06900
O           8.62000         7.07300        26.26000
C           8.06000         8.23600        26.88600
O           8.93900         8.31900        28.01700
C           8.21100         8.12100        29.23800
C           8.84000         6.82400        29.72000
O           8.45800         5.75600        28.84100
H           8.52200         6.17800        27.93700
C           8.37500         6.42700        31.11200
O           9.07800         5.31400        31.68200
H           8.57800         5.14500        32.53200
C           8.02900        10.61700        29.99900
O           8.47200        11.37600        28.86500
H           8.37000        12.36400        28.98000
C           8.49700         9.19700        30.27200
O           7.98500         8.81700        31.55800
C           8.53400         7.59500        32.07200
O           7.59100         7.34800        33.12600

