# freq=raman b3lyp/6-31+g(2d,p) geom=connectivity
400 8000.com
400 8000.com
C          10.58000         7.85500         2.82500
0 1
O          10.57500        10.24200         2.29000
H          10.60000         9.78800         1.39900
C          11.00700         9.51800         4.66800
O          10.56400        10.78800         5.16800
H          11.10500        11.00700         5.98000
C          10.04000         5.38100         3.58600
O           9.28500         4.74600         2.54300
H           9.24100         3.75600         2.67200
C          10.05000         6.87600         3.86000
O          10.66400         7.12000         5.13400
C          10.54400         8.45400         5.64900
O          11.35100         8.42500         6.83500
C          10.73100         8.18400         8.10700
C          10.95300         6.81600         8.73200
O          10.54100         5.84300         7.76100
H          10.00100         6.22900         7.01400
C          10.09200         6.50500         9.94500
O          10.28700         5.24800        10.61000
H           9.91700         5.28000        11.53900
C          11.25000        10.53400         8.83800
O          12.00200        11.02900         7.72000
H          11.97600        12.02900         7.69900
C          11.20900         9.07000         9.24600
O          10.37000         9.00900        10.40800
C          10.42800         7.65500        10.87900
O           9.66400         7.65600        12.09400
C          10.34200         7.82900        13.34700
C          10.31900         9.25200        13.88200
O          10.79600        10.20900        12.92500
H          10.44800         9.88100        12.04700
C          10.99300         9.46100        15.22800
O          10.46000        10.65100        15.82500
H          10.83800        10.84600        16.73000
C          10.34900         5.39900        14.06100
O           9.47300         4.79500        13.09800
H           9.43300         3.85700        13.44400
C          10.05000         6.83500        14.45900
O          10.89700         7.10000        15.58700
C          10.54100         8.36000        16.17300
O          11.38500         8.25500        17.32900
C          10.73100         8.18600        18.60500
C          10.53700         6.83300        19.27000
O           9.91700         6.00500        18.27600
H          10.25600         6.16500        17.34900
C           9.82900         6.81300        20.61600
O           9.92300         5.52800        21.24900
H           9.68000         5.54900        22.21900
C          11.69700        10.35500        19.20100
O          10.77500        11.22900        18.53300
H          11.04200        12.19300        18.55400
C          11.38900         8.96400        19.73200
O          10.52000         9.12800        20.86200
C          10.38500         7.87600        21.54900
O           9.50500         7.94300        22.68100
C          10.23700         8.03700        23.91100
C          10.27800         9.46600        24.42700
O          10.96000        10.25400        23.44100
H          10.52900        10.17200        22.54200
C          10.95500         9.58800        25.78300
O          10.44800        10.88100        26.14300
H          10.76200        11.13500        27.05800
C           9.60200         5.64000        24.79600
O           9.13300         5.07100        23.56400
H           8.93800         4.09900        23.69700
C           9.68500         7.14300        25.01000
O          10.39200         7.36300        26.23900
C          10.34400         8.67000        26.82900
O          11.22900         8.57600        27.95500
C          10.61100         8.33300        29.22700
C          10.57500         6.84900        29.55100
O           9.75500         6.14400        28.60900
H          10.06100         6.36700        27.68400
C          10.01400         6.59900        30.94200
O          10.54100         5.36000        31.43700
H          10.34600         5.37500        32.41700
C          11.82400        10.49200        30.02900
O          10.95600        11.50100        29.49300
H          11.37700        12.36300        29.20800
C          11.25100         9.12300        30.35700
O          10.46300         8.95500        31.54400
C          10.52600         7.58800        31.97600
O           9.53800         7.71900        33.00900
C          10.31800         7.88000        34.20200
C          10.36400         9.29400        34.75800
O          11.00800        10.21100        33.86200
H          10.60300        10.11600        32.95200
C          10.99600         9.49300        36.12600
O          10.64500        10.81000        36.57400
H          10.79300        10.90600        37.55900
C          10.12700         5.47500        35.20100
O           9.67800         4.81100        34.01100
H           9.75000         3.81700        34.09600
C           9.98600         6.97800        35.37900
O          10.55300         7.21600        36.67700
C          10.38600         8.55700        37.15800
O          11.08900         8.50900        38.40800
C          10.32700         8.26100        39.59800
C          10.51200         6.81700        40.03800
O           9.75900         6.04400        39.09300
H           9.99500         6.27200        38.14800
C          10.05100         6.62000        -0.45200
O          10.05500         5.27300         0.04300
H           9.76600         5.33600         0.99800
C          11.27500        10.60100        40.25300
O          10.98700        11.27500        39.01900
H          11.36800        12.19500        39.10100
C          11.11300         9.14200        -1.36300
O          10.90700         8.89800         0.03600
C          10.87500         7.52500         0.45000
O           9.97100         7.81600         1.52600
C           5.68500         4.19100         0.31200
C           5.59600         2.71900        42.67900
O           5.10300         1.90400        41.60600
H           5.30700         2.29800        40.71000
C           4.67600         2.63300         1.96900
O           4.56700         1.30900         2.51200
H           4.31500         0.73700         1.73100
C           6.46900         6.42100         1.12200
O           5.40600         7.25400         0.63700
H           5.85400         7.93500         0.05700
C           6.27900         4.95700         1.48400
O           5.41700         4.84500         2.62600
C           5.27000         3.49000         3.07500
O           4.50400         3.49500         4.28800
C           5.09200         3.69300         5.58200
C           5.13900         5.07200         6.22200
O           5.53000         6.03300         5.23100
H           5.17200         5.85500         4.31400
C           5.96000         5.08000         7.50100
O           6.01300         6.38500         8.09400
H           6.31000         7.00700         7.36900
C           4.38300         1.32500         6.39500
O           5.39300         0.56000         5.71900
H           5.03500        -0.30900         5.37900
C           4.53400         2.80900         6.68500
O           5.32200         2.81700         7.88500
C           5.28200         4.12600         8.47100
O           6.19800         3.97200         9.56500
C           5.47100         4.09700        10.79600
C           5.30500         2.69400        11.35600
O           4.57900         1.98700        10.34000
H           4.93500         2.23100         9.43800
C           4.74100         2.65400        12.76700
O           4.76500         1.37200        13.41100
H           4.28100         0.71100        12.83700
C           6.41400         6.39500        11.22200
O           5.27900         7.14300        10.76300
H           5.37700         7.17100         9.76800
C           6.14400         5.01600        11.80200
O           5.23400         4.93600        12.90800
C           5.43400         3.70500        13.61800
O           4.66900         3.97200        14.80200
C           5.38500         4.01900        16.04500
C           5.53300         5.46200        16.49900
O           6.15000         6.24300        15.46600
H           5.54200         6.05000        14.69600
C           6.19700         5.50700        17.86500
O           6.16000         6.85300        18.36100
H           6.80500         7.48000        17.92500
C           4.36800         1.83300        16.59700
O           5.27300         0.92800        15.95000
H           5.24500         1.17300        14.98100
C           4.66700         3.22700        17.12600
O           5.38600         3.22400        18.36800
C           5.50900         4.57200        18.84600
O           6.09300         4.64900        20.15500
C           5.32000         4.35900        21.32900
C           5.21100         2.89600        21.72800
O           4.44700         2.26400        20.69000
H           4.97400         2.33900        19.84400
C           4.51200         2.69300        23.06200
O           4.65300         1.33300        23.49900
H           4.03500         0.73100        22.99300
C           6.09800         6.61000        22.14300
O           5.08400         7.61900        22.03200
H           5.50900         8.19900        21.33700
C           5.93700         5.13700        22.48000
O           5.35400         4.94300        23.77700
C           5.30800         3.53400        24.04600
O           4.63800         3.67500        25.30700
C           5.29600         3.84000        26.57200
C           5.16100         5.28400        27.02600
O           5.74200         6.15000        26.04000
H           5.39200         5.85200        25.15200
C           5.86100         5.51800        28.35500
O           5.40700         6.76300        28.90600
H           5.66300         7.43700        28.21200
C           4.21600         1.57100        27.17100
O           5.26200         0.61300        26.95000
H           4.87100        -0.21400        26.54700
C           4.62300         2.96600        27.61800
O           5.45300         3.11500        28.77900
C           5.42900         4.43800        29.33300
O           6.20000         4.44200        30.54400
C           5.50100         4.47100        31.79700
C           5.27300         3.09900        32.41000
O           4.47400         2.41300        31.43500
H           4.98100         2.36300        30.57500
C           4.67400         2.97200        33.80100
O           5.00400         1.64700        34.24300
H           4.62600         1.53400        35.16200
C           6.50500         6.62400        32.44900
O           5.38800         7.52400        32.44500
H           5.55300         8.26100        31.78900
C           6.18200         5.21900        32.93100
O           5.41800         5.29600        34.14300
C           5.23600         4.01100        34.75700
O           4.52100         4.15100        35.99300
C           5.30900         4.27100        37.18600
C           5.46700         5.66900        37.76300
O           5.93800         6.55900        36.74100
H           5.66900         6.13600        35.87600
C           6.35800         5.69900        38.99400
O           6.29700         7.06000        39.44300
H           6.81000         7.67800        38.84700
C           3.98400         2.20800        37.96800
O           4.76700         1.13400        37.42700
H           4.71800         0.19400        37.76300
C           4.81100         3.42600        38.34700
O           5.76900         3.43000        39.41500
C           5.69900         4.74800        39.97900
O           6.52900         4.35400        41.08100
C          11.63200        15.95500         2.66000
C          11.26000        17.35500         3.12200
O          11.58500        18.32800         2.11800
H          11.41900        18.01900         1.18100
C          12.00500        17.61900         4.42000
O          11.77300        18.93000         4.95500
H          12.08800        18.92200         5.90500
C          11.30200        13.62600         3.34100
O          10.53500        12.92700         2.35000
H          10.69100        11.94200         2.41800
C          11.03800        15.06800         3.74200
O          11.89300        15.24700         4.88100
C          11.68000        16.54800         5.44900
O          12.48000        16.48200         6.63800
C          11.89700        16.22600         7.92400
C          12.19400        14.82900         8.44600
O          11.85800        13.81300         7.48900
H          12.08700        14.35200         6.67900
C          11.56300        14.61200         9.81200
O          12.04100        13.37300        10.35500
H          11.60900        13.17900        11.23600
C          12.22800        18.71500         8.61700
O          12.64200        19.44800         7.45600
H          12.93500        20.39000         7.62000
C          12.43700        17.24000         8.91900
O          11.62100        16.95000        10.06300
C          11.90400        15.73700        10.77500
O          11.05500        15.83700        11.92800
C          11.87400        15.86100        13.10700
C          11.59400        17.24600        13.66700
O          11.87900        18.35300        12.80100
H          11.41600        18.35500        11.91500
C          12.28300        17.37400        15.01600
O          11.99000        18.66700        15.56500
H          12.07400        18.68500        16.56100
C          11.13800        13.39900        13.97900
O          10.77000        12.84900        12.70600
H          10.75100        11.85900        12.84900
C          11.28700        14.90400        14.13200
O          11.80100        15.05000        15.46400
C          11.85800        16.35400        16.06000
O          12.73200        16.18000        17.18400
C          11.96000        16.19300        18.39400
C          12.19400        14.79900        18.95100
O          11.52900        13.91900        18.03300
H          11.71900        14.15600        17.08000
C          11.58500        14.50900        20.31300
O          11.93900        13.27100        20.94700
H          11.67900        13.22600        21.91200
C          12.32800        18.59000        19.18100
O          13.15500        19.18400        18.17000
H          13.24500        20.16400        18.34400
C          12.44500        17.10900        19.50500
O          11.78900        16.88400        20.76200
C          12.02800        15.57600        21.30100
O          11.16300        15.70600        22.43800
C          12.00100        15.97600        23.57100
C          11.77500        17.37500        24.12000
O          12.16500        18.32400        23.11700
H          12.15200        17.74400        22.30200
C          12.31400        17.65700        25.51300
O          11.76900        18.83200        26.13100
H          12.29600        18.99800        26.96400
C          11.47400        13.51100        24.64900
O          11.13300        12.82900        23.43300
H          11.20800        11.84100        23.57200
C          11.61100        15.02400        24.69000
O          12.30700        15.15700        25.93800
C          12.04800        16.47900        26.43500
O          12.87200        16.40100        27.60800
C          12.21600        16.35300        28.88400
C          12.42700        14.93100        29.38000
O          12.00400        13.92800        28.44600
H          12.23700        14.23200        27.52200
C          11.77500        14.61600        30.71600
O          12.15400        13.37100        31.32200
H          11.69100        13.18400        32.18800
C          12.74200        18.76300        29.91600
O          13.20200        19.31000        28.67100
H          13.37500        20.29300        28.73200
C          12.75000        17.24500        29.99200
O          11.92200        16.97500        31.13200
C          12.08800        15.68900        31.74600
O          11.30200        15.46800        32.92700
C          11.84500        15.82400        34.20600
C          11.48800        17.24600        34.60800
O          12.09800        18.23000        33.76100
H          12.09300        17.91100        32.81300
C          12.12700        17.60800        35.93900
O          11.66900        18.83300        36.52800
H          12.25800        19.04400        37.30900
C          11.50600        13.38800        35.05800
O          11.03200        12.76600        33.85500
H          10.75400        11.82500        34.04800
C          11.34600        14.88200        35.28900
O          12.06500        15.22500        36.48300
C          11.83000        16.54800        36.98700
O          12.60000        16.48400        38.19700
C          11.84600        16.19000        39.38200
C          12.31900        14.83700        39.88800
O          11.99700        13.80000        38.95000
H          12.04900        14.17800        38.02600
C          11.60100        14.65400        41.21500
O          11.98000        13.38400        41.76500
H          11.34000        13.06500        42.46400
C          11.97100        18.79400        40.04000
O          12.76600        19.43000        39.02900
H          12.59200        20.41400        39.01600
C          12.24500        17.32400        40.31100
O          11.64500        17.08900        41.59300
C          11.94400        15.80100        42.15100
O          11.07500        15.71300        43.28900
C           6.92300        12.40200         0.44500
C           6.63400        10.94700        42.77400
O           5.82000        10.15500        41.89700
H           6.16200        10.27600        40.96500
C           5.80000        10.87300         2.12500
O           5.55000         9.55100         2.62600
H           4.74400         9.19700         2.15300
C           7.74800        14.52900         1.14900
O           6.73300        15.50800         0.88300
H           7.10000        16.31200         0.41400
C           7.58700        13.09400         1.62400
O           6.78700        12.99200         2.81100
C           6.50000        11.64900         3.22800
O           5.94100        11.57500         4.54700
C           6.70400        11.87800         5.72300
C           6.84100        13.33500         6.13300
O           7.48700        14.23500         5.22100
H           7.06400        14.14900         4.31900
C           7.57500        13.33900         7.46400
O           7.48600        14.69400         7.92800
H           7.77700        15.37300         7.25400
C           5.50300         9.69400         6.50400
O           6.42200         8.66400         6.11100
H           5.94500         7.95800         5.58700
C           6.04000        11.07800         6.83200
O           6.70100        11.16500         8.10300
C           6.85300        12.52700         8.52800
O           7.55600        12.47000         9.77700
C           6.82000        12.28200        10.99400
C           6.64500        10.83700        11.43100
O           6.05900        10.04700        10.38600
H           6.21300        10.44100         9.48000
C           5.83000        10.70200        12.70700
O           5.60000         9.33400        13.07500
H           5.85700         8.85000        12.23800
C           7.85100        14.52900        11.53200
O           6.79100        15.48800        11.39800
H           7.13600        16.25400        10.85500
C           7.48600        13.14800        12.05100
O           6.66800        12.99400        13.22000
C           6.55000        11.63500        13.66700
O           5.87500        11.79300        14.92400
C           6.72100        11.83100        16.08200
C           6.68000        13.22200        16.69200
O           7.22500        14.05500        15.65800
H           6.75900        13.74600        14.82900
C           7.41100        13.36200        18.01700
O           7.34200        14.61100        18.72000
H           7.72500        15.26200        18.06500
C           5.93700         9.51800        16.73700
O           7.06000         8.72200        16.33100
H           6.70100         7.88800        15.91300
C           6.32100        10.90700        17.22100
O           7.19400        11.03700        18.35200
C           6.99600        12.29400        19.01600
O           7.72000        11.96300        20.20900
C           6.92000        11.95600        21.40000
C           6.64000        10.60900        22.04600
O           6.03200         9.80400        21.02500
H           6.20400        10.23500        20.13900
C           5.93100        10.66700        23.39000
O           5.83200         9.35400        23.96000
H           5.48200         8.76500        23.23200
C           7.63400        14.28200        22.00300
O           6.66600        15.29500        21.69200
H           7.11000        16.05600        21.22000
C           7.41800        12.86600        22.51200
O           6.53700        12.87800        23.64400
C           6.68100        11.61600        24.31100
O           5.89800        11.89000        25.48200
C           6.68100        11.80100        26.68100
C           7.08200        13.16000        27.23200
O           7.83200        13.87900        26.24300
H           7.25100        13.74900        25.44000
C           7.66800        13.27000        28.63100
O           7.19700        14.51800        29.16000
H           7.42200        15.27200        28.54300
C           5.40700         9.80500        27.31400
O           6.41600         8.82900        27.01600
H           5.96800         8.11300        26.48100
C           5.80600        11.19900        27.76900
O           6.44100        11.06500        29.04900
C           6.83200        12.36300        29.51900
O           7.73500        12.17000        30.61800
C           6.99400        12.16800        31.84700
C           6.80900        10.79300        32.46900
O           6.03400         9.99800        31.55900
H           6.28800        10.20200        30.61400
C           6.05100        10.86100        33.78400
O           5.83400         9.60300        34.43900
H           5.55900         9.04700        33.65400
C           7.86100        14.49600        32.54100
O           6.80000        15.29200        31.99200
H           7.12000        15.42600        31.05400
C           7.62500        13.04300        32.91800
O           6.81800        13.04400        34.10500
C           6.69800        11.79200        34.79600
O           5.89900        12.10800        35.94500
C           6.73500        12.06700        37.11100
C           6.94800        13.51300        37.52800
O           7.66100        14.31600        36.57700
H           7.41800        14.05900        35.64200
C           7.64300        13.55900        38.87900
O           7.95700        14.85500        39.40900
H           8.32300        15.35600        38.62500
C           5.49400         9.93500        37.85200
O           6.59300         9.02900        37.68400
H           6.33000         8.17800        37.23000
C           5.95200        11.34300        38.19500
O           6.70100        11.44000        39.41400
C           6.85900        12.77500        39.91800
O           7.61200        12.51100        41.11000
C          13.53700        23.61400         2.87900
C          13.59300        25.01900         3.45600
O          13.76200        25.93900         2.36800
H          13.45100        25.52300         1.51300
C          14.36500        25.17700         4.75500
O          14.36100        26.58800         5.01900
H          14.54700        26.75100         5.98800
C          13.25200        21.21900         3.42800
O          12.42800        20.72700         2.36200
H          12.14800        19.81400         2.65800
C          13.06700        22.63700         3.94500
O          13.77300        22.91500         5.16300
C          13.62800        24.23900         5.69700
O          14.32200        24.32900         6.95000
C          13.64300        24.23200         8.21000
C          13.76000        22.82600         8.77600
O          13.37200        21.85500         7.79300
H          13.61300        22.24400         6.90400
C          12.98000        22.57800        10.05700
O          13.16100        21.27100        10.62100
H          12.71800        21.00500        11.47700
C          13.63400        26.65100         8.85500
O          14.03800        27.46100         7.74100
H          14.43200        28.33300         8.03000
C          14.03600        25.24600         9.27200
O          13.22700        25.06100        10.44300
C          13.36000        23.73300        10.97000
O          12.50100        23.78900        12.11800
C          13.13900        23.89100        13.39900
C          13.17200        25.35400        13.81100
O          13.83800        26.16200        12.83000
H          13.62000        25.73300        11.95300
C          13.57800        25.64600        15.24700
O          13.65200        26.91900        15.90400
H          14.13600        26.81600        16.77300
C          12.71300        21.61800        14.20400
O          12.30800        20.81900        13.08300
H          12.21600        19.87100        13.38800
C          12.44800        23.08700        14.48800
O          13.08500        23.26200        15.76200
C          13.14800        24.60400        16.26600
O          14.11800        24.50000        17.31800
C          13.55400        24.29800        18.62100
C          13.64600        22.86400        19.11700
O          13.17300        21.90400        18.16100
H          13.49800        22.27500        17.29000
C          12.99200        22.65100        20.47200
O          13.23800        21.30300        20.89900
H          12.65000        21.08800        21.67900
C          14.44000        26.51500        19.47000
O          14.75300        27.17800        18.23600
H          14.99200        28.11000        18.50600
C          14.28100        25.02800        19.73900
O          13.66800        24.95200        21.03400
C          13.61400        23.59300        21.49000
O          12.66600        23.66600        22.56400
C          13.26500        23.93800        23.83900
C          13.07800        25.39300        24.24000
O          13.61000        26.39300        23.36000
H          13.52400        25.96600        22.45900
C          13.63400        25.61800        25.63700
O          13.32800        26.93700        26.11300
H          13.78200        27.08700        26.99100
C          12.55300        21.54000        24.69200
O          12.13100        20.94900        23.45400
H          12.31100        19.96500        23.47300
C          12.65500        23.04200        24.90500
O          13.44000        23.21900        26.09300
C          13.20600        24.53500        26.61400
O          14.05300        24.65100        27.76600
C          13.45800        24.53400        29.06700
C          13.51800        23.09600        29.55500
O          13.34300        22.03100        28.60900
H          13.80300        22.31500        27.76800
C          12.66900        22.93200        30.80500
O          12.97500        21.65700        31.38900
H          12.64900        21.72400        32.33300
C          13.71400        26.96600        29.63700
O          14.37300        27.52100        28.48900
H          14.39200        28.49600        28.71000
C          13.88200        25.53700        30.12800
O          13.07300        25.29200        31.28800
C          12.98700        23.97900        31.86000
O          12.13800        23.80700        33.00300
C          12.86400        23.90300        34.23800
C          12.56600        25.27400        34.82200
O          13.04700        26.31000        33.95300
H          12.79200        26.23100        32.98900
C          13.29900        25.54000        36.12600
O          13.08200        26.84300        36.68800
H          13.37700        26.71700        37.63500
C          12.68000        21.61600        34.90700
O          12.23300        20.78500        33.82600
H          12.33000        19.83700        34.13100
C          12.36100        23.02700        35.37400
O          12.95400        23.21600        36.66700
C          12.79300        24.55200        37.16400
O          13.64700        24.61700        38.31500
C          13.27600        24.33300        39.67200
C          13.28000        22.87200        40.09300
O          12.56500        22.16500        39.06900
H          12.95400        22.45400        38.19400
C          12.64200        22.65000        -0.46900
O          13.06900        21.33500        -0.08600
H          12.69500        21.19200         0.83000
C          13.90700        26.61800        40.41600
O          14.26200        27.21900        39.16200
H          14.19800        28.20300        39.33100
C          14.16000        25.15500        -1.32700
O          13.62100        24.93500        -0.01500
C          13.46400        23.57500         0.41300
O          12.76800        23.59000         1.66800
C           8.08000        20.44500         0.44200
C           8.03600        18.99600         0.89800
O           7.32000        18.09800         0.03800
H           7.86900        18.04100        -0.79600
C           7.31400        18.82100         2.22400
O           7.51100        17.50700         2.76700
H           6.88900        17.00500         2.16700
C           9.01200        22.69800         1.24000
O           7.99400        23.49900         0.62400
H           7.90700        23.26400        -0.34400
C           8.80600        21.22000         1.52900
O           8.05100        21.06900         2.74100
C           8.05300        19.71300         3.20900
O           7.26000        19.90500         4.39000
C           8.04600        19.91000         5.59000
C           8.41000        21.30100         6.08400