# freq=raman b3lyp/6-31+g(d,p) geom=connectivity

400 10000.com

0 1
 O                  9.63100000    7.50100000   22.38900000
 C                 10.32000000    7.80800000   23.61000000
 C                 10.00100000    9.20800000   24.10700000
 O                 10.59600000   10.19400000   23.25000000
 H                 10.27100000    9.98200000   22.32800000
 C                 10.44600000    9.43800000   25.54200000
 O                  9.83500000   10.58700000   26.14700000
 H                 10.19000000   10.93700000   27.01400000
 C                  9.87100000    5.42700000   24.23600000
 O                  9.48700000    4.77100000   23.01900000
 H                  9.19900000    3.82100000   23.14000000
 C                  9.76300000    6.87800000   24.67500000
 O                 10.43400000    7.04400000   25.93300000
 C                 10.10900000    8.31600000   26.51100000
 O                 10.92800000    8.54600000   27.66700000
 C                 10.34300000    8.20500000   28.93200000
 C                 10.73800000    6.82700000   29.43700000
 O                 10.39200000    5.78400000   28.51400000
 H                 10.75300000    5.95500000   27.59800000
 C                 10.02400000    6.54000000   30.74800000
 O                 10.15400000    5.14700000   31.06800000
 H                  9.79700000    5.06700000   31.99900000
 C                 10.13700000   10.62100000   29.57100000
 O                 10.86600000   11.31500000   28.54800000
 H                 10.61200000   12.27900000   28.63300000
 C                 10.57800000    9.23800000   30.02100000
 O                  9.92900000    8.88100000   31.25000000
 C                 10.43000000    7.62500000   31.73200000
 O                  9.67100000    7.71000000   32.94700000
 H                 10.27135485    7.32659714   21.69536515
 H                 10.91267399    5.20297249   24.33411712
 H                  8.72780335    7.11021877   24.81407675
 H                 11.37555371    7.67205868   23.49942733
 H                  8.93937974    9.33586183   24.06809264
 H                 11.50669406    9.57877787   25.54511468
 H                  9.07292823    8.35158518   26.77593204
 H                 10.13507310   11.24866952   30.43756059
 H                  9.12519905   10.53494583   29.23372635
 H                 10.26991039    7.76236011   33.69544156
 H                 11.48522103    7.65518608   31.90663497
 H                  8.98205550    6.69557519   30.56078885
 H                 11.79467334    6.80744858   29.60421006
 H                  9.28554898    8.17388179   28.77159741
 H                 11.63059642    9.27755903   30.20908474
 H                  9.35021755    4.88579199   24.99808892

 1 2 1.0 30 1.0
 2 3 1.0 12 1.0 33 1.0
 3 4 1.0 6 1.0 34 1.0
 4 5 1.0
 5
 6 7 1.0 14 1.0 35 1.0
 7 8 1.0
 8
 9 10 1.0 12 1.0 31 1.0 45 1.0
 10 11 1.0
 11
 12 13 1.0 32 1.0
 13 14 1.0
 14 15 1.0 36 1.0
 15 16 1.0
 16 17 1.0 26 1.0 43 1.0
 17 18 1.0 20 1.0 42 1.0
 18 19 1.0
 19
 20 21 1.0 28 1.0 41 1.0
 21 22 1.0
 22
 23 24 1.0 26 1.0 37 1.0 38 1.0
 24 25 1.0
 25
 26 27 1.0 44 1.0
 27 28 1.0
 28 29 1.0 40 1.0
 29 39 1.0
 30
 31
 32
 33
 34
 35
 36
 37
 38
 39
 40
 41
 42
 43
 44
 45

