# freq=raman b3lyp/6-31+g(2d,p) geom=connectivity
550 10000.com
550 10000.com
C           9.88600         7.98000         1.62500
0 1
O          10.07000        10.50200         1.16700
H          10.25600        10.02200         0.31000
C          11.04300         9.32400         3.18200
O          11.94100        10.43900         3.28300
H          11.39400        11.27500         3.32800
C           9.29200         5.63600         2.34800
O           8.81900         4.72700         3.35300
H           8.52500         3.93700         2.81500
C           9.39100         7.09600         2.75900
O          10.06300         7.39200         3.99200
C          10.36200         8.73300         4.40500
O          10.92300         8.40100         5.68400
C          10.25300         8.27300         6.94600
C           9.82000         6.86400         7.31800
O           8.66400         6.41500         6.59700
H           8.93100         5.46500         6.43800
C           9.09700         6.85700         8.65500
O           8.55700         5.58500         9.04100
H           7.77000         5.54900         8.42400
C          11.54400        10.24800         7.57500
O          11.12300        11.57000         7.94100
H          11.29300        12.22000         7.20000
C          10.85200         9.01400         8.13000
O          10.13500         8.85800         9.36300
C          10.03400         7.46400         9.68600
O           9.61300         7.46100        11.05800
C          10.47300         7.66800        12.18800
C          10.31600         9.02500        12.85400
O          10.62400        10.00000        11.84700
H          10.59700         9.56500        10.94700
C          10.76400         9.36800        14.26500
O          10.39700        10.58600        14.93000
H          10.57000        11.33200        14.28600
C           9.92100         5.22100        12.93600
O           9.15700         4.18200        13.56300
H           8.98700         3.30500        13.11200
C           9.94600         6.71000        13.24300
O          10.74700         6.92400        14.41400
C          10.31400         8.14100        15.04100
O          11.15000         8.19300        16.20600
C          10.28300         8.09200        17.34500
C           9.87000         6.66600        17.67000
O           8.85100         6.18000        16.78500
H           9.33600         5.60500        16.12600
C           9.13300         6.81200        18.99100
O           8.79400         5.44800        19.28200
H           8.09500         5.42500        18.56800
C          11.65800        10.04200        18.19300
O          12.58200        10.62300        19.12400
H          13.41600        10.08500        19.24400
C          11.20500         8.61200        18.43600
O          10.69200         8.48500        19.77000
C          10.00900         7.27900        20.14200
O           9.50100         7.57200        21.45100
C          10.34100         7.42700        22.60500
C          10.68100         8.85600        22.99800
O          11.74600         9.37300        22.18700
H          11.50700         9.27300        21.22100
C          11.07000         8.84500        24.46700
O          11.23300        10.16000        25.01700
H          11.41700        10.92600        24.40000
C           9.51600         5.20000        23.13800
O           8.74100         4.41300        24.05400
H           8.49200         3.59000        23.54300
C           9.60400         6.62400        23.66400
O          10.16000         6.65400        24.98700
C          10.25700         8.01100        25.44400
O          10.93600         7.76000        26.68300
C          10.22600         7.82300        27.92900
C           9.69700         6.44300        28.28400
O           8.77700         5.72000        27.45400
H           9.21100         5.39000        26.61500
C           9.15600         6.34600        29.70200
O           8.92400         4.96700        30.02300
H           8.22200         4.73000        29.35200
C          12.24500         9.14400        28.59700
O          11.81600        10.51100        28.50700
H          11.44900        10.75700        27.61000
C          11.23700         8.09300        29.03200
O          10.70000         8.14200        30.36200
C          10.17400         6.85300        30.71000
O           9.44000         6.94400        31.94000
C          10.33900         6.86400        33.05600
C          10.31100         8.22300        33.73800
O          11.08600         9.14000        32.95200
H          10.89900         9.15100        31.97000
C          11.00000         8.25200        35.09200
O          10.58700         9.53500        35.58600
H          10.52700        10.25400        34.89300
C           9.61200         4.39300        33.55400
O           9.29600         3.50800        34.63900
H           9.54200         2.58800        34.33400
C           9.71600         5.84400        33.99400
O          10.45700         5.87600        35.22300
C          10.37400         7.13400        35.90900
O          11.02500         6.67200        37.10100
C          10.20600         7.06100        38.21400
C           9.37000         5.86500        38.63700
O           8.51900         5.27000        37.64600
H           9.10900         4.87800        36.94000
C           8.74600         5.95200        40.02100
O           8.13300         4.70900        40.39300
H           7.26100         4.53900        39.93300
C          11.72100         8.84100        39.30800
O          11.00900        10.08700        39.32800
H          11.11000        10.58300        38.46600
C          11.09500         7.45800        39.38100
O          10.46200         7.51400        40.66800
C           9.92300         6.21400        40.94600
O           9.38500         6.07500        42.26900
C           4.86000         2.46300        41.49500
C           5.19700         1.01900        41.82700
O           4.87200         0.08500        40.78800
H           4.71100         0.56600        39.92600
C           4.15100         2.16600         1.30800
O           4.52600         0.80600         1.56900
H           4.28600         0.18500         0.82200
C           4.70800         6.33600         0.60100
O           4.46200         7.17000         1.74300
H           4.63000         8.12700         1.50700
C           4.75900         4.86900         0.99600
O           3.86800         4.31400         1.97400
C           4.38200         3.08100         2.50000
O           3.58400         2.69200         3.62600
C           4.12500         3.04000         4.90900
C           3.69400         4.36300         5.51800
O           4.10200         5.32900         4.53900
H           3.70900         4.99100         3.68400
C           4.31200         4.75600         6.85000
O           3.66200         5.87700         7.46800
H           3.69500         6.67800         6.87000
C          10.83100        33.28700         5.58000
O          10.69300        32.24400         6.55500
H          10.96700        31.35000         6.19900
C           3.87600         2.02600         6.01400
O           4.50300         2.28900         7.27800
C           4.13600         3.57700         7.79400
O           5.10100         3.64900         8.85300
C           4.52500         3.41400        10.14600
C           4.34100         1.95100        10.51300
O           3.60500         1.14800         9.57800
H           3.90900         1.38700         8.65600
C           3.83800         1.75200        11.93300
O           3.94800         0.50700        12.63800
H           3.43200        -0.21400        12.17500
C           5.44300         5.71100        10.95200
O           6.31200         6.40600        11.85800
H           6.59700         7.18000        11.29300
C           5.15700         4.24800        11.24800
O           4.30700         4.03000        12.38400
C           4.50300         2.70900        12.90900
O           3.78500         2.81600        14.14700
C           4.53300         3.18100        15.31600
C           4.32700         4.61300        15.78200
O           4.61500         5.61000        14.79100
H           4.63000         5.23700        13.86300
C           4.98500         4.89800        17.12300
O           4.52600         6.16700        17.61000
H           4.73300         6.72400        16.80500
C          11.03600        33.35600        15.94100
O          10.64400        32.32400        16.85900
H          10.90000        31.42400        16.50600
C           4.34700         2.13400        16.40200
O           5.18200         2.47700        17.51700
C           4.73100         3.72700        18.05800
O           5.39200         3.85000        19.32600
C           4.61800         3.47800        20.47500
C           4.67300         2.01900        20.89700
O           3.85900         1.15700        20.08900
H           4.15600         1.33800        19.15200
C           4.13400         1.75200        22.29300
O           4.28200         0.35900        22.60500
H           3.91600        -0.16500        21.83600
C           5.60700         5.69300        21.41800
O           4.52300         6.61800        21.59100
H           4.84100         7.53800        21.82100
C           5.25600         4.23000        21.63200
O           4.46300         4.04300        22.81300
C           4.58700         2.72600        23.36900
O           3.94700         2.70500        24.65300
C           4.73700         2.73600        25.85000
C           4.87000         4.07800        26.55100
O           5.15500         5.14900        25.64000
H           4.48700         5.08200        24.89900
C           5.64800         4.07400        27.85700
O           5.90900         5.24200        28.64900
H           6.25400         6.03500        28.14800
C          10.55400        33.00100        26.51200
O          11.72600        32.17900        26.60100
H          11.39800        31.23700        26.52400
C           4.18800         1.78900        26.90500
O           4.86500         1.80100        28.17000
C           5.05100         3.06500        28.82300
O           5.94400         2.84700        29.92500
C           5.15000         2.56500        31.08600
C           5.13400         1.12600        31.57600
O           4.28000         0.33400        30.73800
H           4.62000         0.66000        29.85600
C          11.16000        33.57300        32.97800
O          11.54800        32.35000        33.62300
H          11.12300        31.65100        33.04800
C           5.65500         5.03700        32.22300
O           4.64600         6.04800        32.36800
H           5.06900         6.87400        31.99500
C           5.39800         3.53900        32.22600
O           4.45400         3.26400        33.27200
C           4.96300         2.07000        33.88200
O           4.14300         2.10800        35.05900
C           4.78100         2.32700        36.32500
C           4.70200         3.78000        36.76600
O           5.01100         4.84900        35.86100
H           4.33400         4.72700        35.13500
C           5.40800         4.00700        38.09300
O           5.32300         5.31000        38.68900
H           5.73400         5.92800        38.01900
C          10.62800        32.81900        37.11100
O          10.29500        31.93200        38.18800
H          10.69900        31.06200        37.90300
C           4.09500         1.62600        37.48700
O           5.07600         1.67500        38.53300
C           4.95200         2.98000        39.11700
O           5.63100         2.93700        40.38100
C          12.65300        15.98900         2.23200
C          13.30100        17.30000         2.64400
O          14.10300        18.02600         1.70200
H          13.68600        17.82600         0.81500
C          14.15200        17.06200         3.88100
O          15.21900        17.96700         4.20200
H          15.90300        17.87500         3.47800
C          11.02200        14.27200         3.09500
O          11.66500        13.00200         3.28000
H          12.43300        12.80700         2.67000
C          11.85300        15.49900         3.42800
O          12.45200        15.55100         4.73200
C          13.06200        16.83600         4.91600
O          13.70100        16.76300         6.19900
C          13.08000        16.41000         7.44400
C          12.69200        14.98800         7.81400
O          11.61800        14.56000         6.96500
H          11.83300        14.88900         6.04600
C          12.26400        14.81900         9.26300
O          12.47500        13.44300         9.61100
H          11.71200        12.94600         9.19900
C          14.31500        18.52100         8.42300
O          15.06900        19.13700         9.47700
H          15.96300        18.74500         9.25900
C          14.00200        17.03500         8.47900
O          13.22800        17.06800         9.68700
C          12.95100        15.76900        10.23000
O          12.26900        16.02900        11.46600
C          13.09400        15.53100        12.52900
C          13.93200        16.71200        12.98900
O          15.20500        16.74900        12.32800
H          15.02900        17.18400        11.44500
C          14.41700        16.56400        14.42200
O          15.16400        17.74100        14.76200
H          15.88700        17.76300        14.07200
C          11.47300        13.84800        13.15200
O          10.67700        12.88200        13.85400
H           9.86400        13.41800        14.08000
C          11.98100        15.23200        13.52000
O          12.46300        15.07900        14.86300
C          13.23700        16.20200        15.30900
O          13.71000        15.81100        16.60700
C          12.88800        15.90300        17.77900
C          12.60900        14.52900        18.36500
O          11.76000        13.83900        17.43700
H          12.04300        13.93400        16.48300
C          12.15600        14.37900        19.80900
O          12.47800        13.02100        20.14300
H          12.31200        12.39000        19.38500
C          14.05800        18.09600        18.62400
O          14.73400        18.76400        19.70000
H          14.95200        19.55700        19.13200
C          13.60900        16.66600        18.87900
O          12.84200        16.66000        20.09100
C          12.89200        15.36300        20.70300
O          12.19500        15.52500        21.94700
C          12.95600        15.14700        23.10400
C          13.73200        16.37200        23.56100
O          14.79700        16.70800        22.66100
H          14.58500        16.98300        21.72300
C          14.25200        16.09700        24.96300
O          14.59000        17.46300        25.24500
H          15.01500        17.87700        24.44000
C          11.26900        13.38300        23.64800
O          11.91600        12.10400        23.58700
H          12.13300        11.90200        22.63200
C          11.91000        14.68400        24.10400
O          12.49300        14.38800        25.38200
C          13.13800        15.57800        25.85800
O          13.49200        15.09400        27.16100
C          12.66500        15.41900        28.28800
C          12.24700        14.02700        28.73400
O          11.27300        13.39800        27.89000
H          11.55200        13.63400        26.95900
C          11.77000        13.81700        30.16200
O          11.83800        12.47900        30.67600
H          11.87100        11.81600        29.92900
C          13.96200        17.46300        29.35100
O          14.81000        17.98100        30.38600
H          15.57000        17.34900        30.53300
C          13.43400        16.04100        29.44300
O          12.83400        15.99100        30.74600
C          12.67000        14.60900        31.09600
O          11.99800        14.81700        32.34600
C          12.90800        14.66200        33.44500
C          13.69700        15.87500        33.90900
O          14.50000        16.26200        32.78500
H          13.81700        16.44600        32.07800
C          14.36400        15.89800        35.27500
O          15.11100        17.05800        35.66800
H          15.83200        17.28400        35.01200
C          11.53600        12.69500        34.22900
O          10.69700        11.98300        35.15100
H           9.74400        12.28000        35.09400
C          12.07300        14.07500        34.57200
O          12.75800        14.19800        35.82700
C          13.32200        15.43700        36.28200
O          13.74900        14.88400        37.53500
C          12.93900        15.10000        38.70000
C          12.66300        13.69900        39.21900
O          11.92500        12.97200        38.22500
H          12.27800        13.27700        37.34100
C          12.15800        13.50100        40.63900
O          12.68200        12.20900        40.97700
H          12.10000        11.52800        40.53300
C          13.74600        17.38300        39.39100
O          14.47900        18.16100        40.34800
H          14.48600        19.13500        40.12500
C          13.71300        15.90300        39.73300
O          12.99300        15.78200        40.96900
C          12.85800        14.48300        41.56300
O          12.19000        14.57900        42.83000
C           7.32100        10.75600        41.01200
C           6.87400         9.39700        41.52400
O           6.43800         8.59500        40.41700
H           6.84900         8.76500        39.52200
C           5.58400        11.08100         0.92400
O           4.96000         9.80800         1.14300
H           3.99000         9.88200         1.37800
C           8.05100        14.47200         0.20400
O           7.10300        15.54900         0.23800
H           7.61700        16.40000         0.34800
C           7.61800        13.03600         0.45000
O           6.86100        12.94700         1.66600
C           6.57500        11.57400         1.96700
O           6.13400        11.78600         3.31600
C           7.11100        11.56700         4.34400
C           7.47500        12.98500         4.75600
O           7.99000        13.80100         3.69400
H           7.40000        13.71800         2.89000
C           8.09700        13.07000         6.14000
O           8.66400        14.28100         6.66100
H           9.38600        13.98200         7.28600
C           6.00500         9.41900         5.02800
O           5.16400         8.52900         5.77500
H           5.13100         7.75600         5.14100
C           6.27100        10.86800         5.40100
O           6.87600        11.04500         6.69000
C           7.16400        12.38200         7.12300
O           7.77900        12.15400         8.40000
C           7.04600        12.12700         9.63400
C           6.65400        10.75400        10.15600
O           5.80900        10.07400         9.21700
H           6.34500         9.85200         8.40200
C           5.96400        10.76400        11.51000
O           5.33700         9.62500        12.11600
H           4.41300         9.48000        11.76200
C           8.50100        14.02100        10.39900
O           7.68000        15.10100         9.93100
H           8.07100        15.89600         9.46700
C           7.86300        12.69500        10.78300
O           7.12200        12.86000        12.00000
C           6.80100        11.55500        12.50200
O           6.09900        11.90000        13.70500
C           6.89900        11.64500        14.86800
C           7.37700        12.94300        15.49800
O           8.07400        13.85700        14.63800
H           7.57300        14.20300        13.84600
C           8.28000        12.52100        16.64600
O           8.96700        13.62500        17.25100
H           9.90800        13.28700        17.26700
C           5.58100         9.57600        15.40700
O           4.94900         8.61400        16.26300
H           4.91600         7.77300        15.72300
C           6.06900        10.92300        15.91700
O           6.79700        10.65600        17.12400
C           7.35800        11.86400        17.66000
O           8.05700        11.45800        18.84600
C           7.39100        11.60200        20.10900
C           6.83500        10.25000        20.52400
O           6.03300         9.76700        19.43700
H           6.50700         9.84300        18.56000
C           5.86600        10.40200        21.68500
O           5.05100         9.23200        21.85000
H           4.68800         8.88700        20.98400
C           8.68800        13.67400        21.18700
O           7.77800        14.78100        21.09800
H           8.25100        15.50100        20.59000
C           8.14400        12.25600        21.25600
O           7.29000        12.14900        22.40500
C           6.64700        10.95200        22.86800
O           6.00000        10.99300        24.14800
C           6.86900        10.82500        25.27800
C           7.16100        12.13400        25.99300
O           7.90800        13.03400        25.16200
H           7.37100        13.22000        24.34000
C           7.96700        12.06600        27.28000
O           8.46400        13.18600        28.02800
H           9.36300        13.08200        28.45200
C           5.93400         8.51600        25.69200
O           6.82500         7.62600        25.00400
H           6.46400         6.70900        25.17300
C           6.49100         9.78400        26.31900
O           7.38900         9.77000        27.43800
C           7.33600        11.00500        28.16700
O           7.98200        10.86200        29.44000
C           7.27500        10.99300        30.68200
C           6.78300         9.62400        31.12100
O           6.09600         8.85500        30.12400
H           6.63300         8.73200        29.29000
C           5.95000         9.79700        32.38100
O           5.40000         8.58300        32.91400
H           4.41800         8.65900        33.08900
C           8.46300        13.02700        31.38600
O           7.55000        14.12400        31.53900
H           7.71500        14.90900        30.94100
C           8.06200        11.62600        31.81800
O           7.27000        11.72700        33.01100
C           6.79400        10.45000        33.46200
O           6.23500        10.89400        34.70700
C           7.16500        10.61300        35.76400
C           7.51500        11.98500        36.31700
O           8.32400        12.69300        35.36600
H           7.68000        13.06800        34.70000
C           8.14000        11.90600        37.70000
O           8.55800        13.25900        37.93100
H           9.21900        13.42200        37.19900
C           6.37900         8.37300        36.31400
O           5.74400         7.25600        36.95400
H           5.66200         6.54600        36.25500
C           6.42100         9.80700        36.81700
O           7.13900         9.79800        38.05900
C           7.27400        11.09800        38.65200
O           8.07500        10.75000        39.79100
C          14.28900        23.79000         3.74700
C          13.97700        25.16200         4.32300
O          14.31100        26.17900         3.36800
H          13.95900        25.92300         2.46800
C          14.72200        25.47800         5.61000
O          14.11200        26.62000         6.22800
H          13.66200        27.15300         5.51200
C          14.59700        21.33200         4.34400
O          14.74800        20.42500         5.44600
H          14.98500        19.52300         5.08500
C          14.21800        22.72300         4.82700
O          15.09600        23.13000         5.88700
C          14.75400        24.32700         6.60200
O          15.52200        24.46900         7.80600
C          14.92900        24.11100         9.06300
C          15.17900        22.65300         9.41000
O          14.17700        21.85600         8.76100
H          14.67100        21.00600         8.57700
C          14.90900        22.38100        10.88100
O          15.46000        21.20800        11.49700
H          15.11100        20.47300        10.91600
C          15.53600        26.42900         9.56100
O          15.84000        27.37600        10.59600
H          15.11900        28.06100        10.69600
C          15.60400        25.00600        10.09000
O          15.06800        24.77900        11.40100
C          15.37400        23.45200        11.85400
O          14.44900        23.59900        12.94100
C          14.89400        23.80300        14.29000
C          14.56300        25.17000        14.86600
O          15.05000        26.33400        14.18000
H          15.03600        25.94600        13.25900
C          14.95100        25.36700        16.32200
O          14.29100        26.40700        17.05700
H          14.59300        27.33900        16.85700
C          14.34200        21.34400        14.77300
O          13.91900        20.16200        15.46700
H          13.93200        19.33000        14.91100
C          14.28300        22.78900        15.24300
O          15.15000        22.90700        16.38000
C          14.77000        24.08100        17.11300
O          15.81700        24.10600        18.09400
C          15.31600        23.60000        19.34000
C          15.58400        22.15900        19.74500
O          15.08900        21.38000        18.64600
H          15.19900        21.92600        17.81500
C          15.04900        21.83100        21.12900
O          15.29200        20.47500        21.53200
H          15.04400        19.83800        20.80200
C          16.09800        25.98300        20.11700
O          14.94300        26.82100        19.96400
H          14.47700        26.45500        19.15800
C          15.95900        24.49400        20.38900
O          15.26300        24.21400        21.61200
C          15.51400        22.89300        22.11300
O          14.55500        22.99200        23.17600
C          15.25000        23.08700        24.42800
C          15.02100        24.51000        24.91000
O          16.01800        25.25000        24.19100
H          16.19900        24.89300        23.27400
C          15.44600        24.73100        26.35300
O          15.40200        26.08200        26.83400
H          15.81600        26.70700        26.17200
C          14.68800        20.73100        25.00000
O          13.91300        19.90200        25.87900
H          14.51800        19.12500        26.05300
C          14.51700        22.18500        25.40800
O          14.96900        22.39000        26.75500
C          14.74500        23.72000        27.24500
O          15.49600        23.58500        28.46100
C          14.75000        23.51600        29.68500
C          14.95600        22.07500        30.12400
O          14.07600        21.23100        29.36800
H          14.42800        21.21600        28.43100
C          14.74000        21.74400        31.59200
O          15.30900        20.47800        31.95800
H          14.98200        19.71100        31.40700
C          15.37600        25.91900        30.38900
O          16.12600        26.79000        31.24800
H          15.93100        27.75100        31.05100
C          15.24400        24.45400        30.77300
O          14.56400        24.16000        32.00200
C          14.93800        22.89400        32.56500
O          14.21000        22.59300        33.76400
C          14.82100        22.83100        35.04000
C          14.47800        24.23500        35.51300
O          14.99700        25.24300        34.63500
H          14.88400        24.97800        33.67700
C          14.83300        24.61700        36.94100
O          14.15700        25.85100        37.22100
H          14.46700        26.52200        36.54700
C          14.46000        20.49800        35.68500
O          14.56900        19.48700        36.69800
H          14.55300        18.64600        36.15700
C          14.36400        21.93300        36.17800
O          15.02200        22.26800        37.40800
C          14.54100        23.51000        37.94100
O          15.26100        23.63000        39.17600
C          14.56100        23.24400        40.36800
C          14.76400        21.76800        40.67000
O          14.26500        20.97700        39.58100
H          14.63500        21.36000        38.73500
C          14.00800        22.82200         0.24100
O          14.75000        21.65500         0.62300
H          14.10500        20.90700         0.46600
C          14.45300        25.38200        41.22600
O          15.19300        26.17200        40.28400
H          14.58700        26.67700        39.67000
C          14.52400        25.59700        -0.11200
O          13.76800        25.12200         1.01100
C          14.19900        23.80500         1.38400
O          13.45600        23.60100         2.59400
C           9.15200        19.99900         0.31600
C           9.11600        18.59500         0.89700
O           8.13800        17.82300         0.18400
H           8.39300        17.75800        -0.78000
C           8.83600        18.43300         2.38200
O           9.22300        17.11100         2.78600
H           8.71100        16.70700         3.54400
C          10.10400        22.26200         0.95300
O           9.03100        23.21400         0.91600
H           9.20600        24.19100         1.03400
C           9.99400        20.78800         1.30600
O           9.31000        20.87500         2.56500
C           9.46000        19.57900         3.16200
O           8.68400        19.73900         4.35800
C           9.44200        19.62200         5.57100
C           9.95200        20.99900         5.96400