# freq=raman b3lyp/6-31+g(d,p) geom=connectivity

550 10000.com

0 1
O           9.61300         7.46100        11.05800
C          10.47300         7.66800        12.18800
C          10.31600         9.02500        12.85400
O          10.62400        10.00000        11.84700
H          10.59700         9.56500        10.94700
C          10.76400         9.36800        14.26500
O          10.39700        10.58600        14.93000
H          10.57000        11.33200        14.28600
C           9.92100         5.22100        12.93600
O           9.15700         4.18200        13.56300
H           8.98700         3.30500        13.11200
C           9.94600         6.71000        13.24300
O          10.74700         6.92400        14.41400
C          10.31400         8.14100        15.04100
O          11.15000         8.19300        16.20600
C          10.28300         8.09200        17.34500
C           9.87000         6.66600        17.67000
O           8.85100         6.18000        16.78500
H           9.33600         5.60500        16.12600
C           9.13300         6.81200        18.99100
O           8.79400         5.44800        19.28200
H           8.09500         5.42500        18.56800
C          11.65800        10.04200        18.19300
O          12.58200        10.62300        19.12400
H          13.41600        10.08500        19.24400
C          11.20500         8.61200        18.43600
O          10.69200         8.48500        19.77000
C          10.00900         7.27900        20.14200
O           9.50100         7.57200        21.45100

