# freq=raman b3lyp/6-31+g(d,p) geom=connectivity

550 7000.com

0 1
O           9.86300         7.05600        11.01700
C          10.55600         7.27600        12.25400
C          10.40800         8.70300        12.75600
O          11.10100         9.55700        11.83500
H          10.92900         9.11600        10.95500
C          10.77800         8.92000        14.21500
O          10.23800        10.03600        14.93600
H          10.62300        10.83000        14.46600
C           9.85600         4.87700        12.65900
O           9.58900         3.90500        13.68100
H           9.71600         3.01500        13.24500
C           9.80500         6.31200        13.15700
O          10.55600         6.46000        14.37100
C          10.39900         7.71200        15.05500
O          11.31100         7.57300        16.15400
C          10.60000         7.87100        17.36500
C           9.31600         7.20900        17.83800
O           8.28400         8.17800        18.07300
H           7.46200         7.78900        18.49000
C           9.48300         6.17400        18.93800
O          10.12600         5.02700        18.36300
H           9.82600         4.91000        17.41600
C          12.06200         9.55700        18.48000
O          11.11500        10.62700        18.61600
H          10.45600        10.65400        17.86400
C          11.50500         8.14500        18.55500
O          10.90400         7.95200        19.84300
C          10.34800         6.65300        20.09200
O           9.70400         6.50200        21.36600

