# freq=raman b3lyp/6-31+g(d,p) geom=connectivity

550 8000.com

0 1
O           9.54500         7.58500        11.45200
C          10.30100         7.49800        12.66800
C          10.33600         8.88100        13.29700
O          11.31000         9.73200        12.67700
H          11.20000         9.45700        11.72200
C          10.93200         8.91100        14.69500
O          10.53200        10.15600        15.28600
H          10.79900        10.95500        14.74600
C           9.53800         5.13800        13.12900
O           8.94800         4.09500        13.91800
H           8.64600         3.36200        13.30800
C           9.72200         6.53700        13.69300
O          10.58500         6.59000        14.83900
C          10.58900         7.77700        15.64600
O          11.44600         7.80500        16.79700
C          10.78800         7.60700        18.05700
C          10.27900         6.23400        18.46600
O           9.46400         5.59000        17.47600
H           9.82500         5.74000        16.55600
C           9.53500         6.24600        19.79100
O           9.21100         4.88300        20.10200
H           9.03000         4.55600        19.17500
C          12.35400         9.39900        18.78700
O          11.80100        10.54900        18.13100
H          11.52900        10.29700        17.20200
C          11.71800         8.07200        19.16600
O          10.88400         8.13000        20.33200
C          10.33600         6.92600        20.89000
O           9.67500         7.40200        22.07100

