# freq=raman b3lyp/6-31+g(2d,p) geom=connectivity
550 8000.com
550 8000.com
C          10.27500         8.16200         2.36300
0 1
O          10.69900        10.53600         1.86100
H          10.19700        10.36300         1.01300
C          10.94000         9.70200         4.17300
O          10.59900        10.96200         4.76900
H          11.04500        11.60400         4.14500
C           9.41700         5.74600         2.97200
O           8.69800         5.04800         3.99900
H           8.04900         5.72800         4.33900
C           9.66900         7.19300         3.36600
O          10.52100         7.36200         4.50800
C          10.42900         8.64700         5.14000
O          11.18900         8.67000         6.35700
C          10.57000         8.40700         7.62600
C          10.68800         6.93700         7.99200
O          10.26800         5.98700         7.00200
H          10.58900         6.35100         6.12800
C           9.71700         6.75200         9.14600
O           9.53800         5.37600         9.51300
H           9.41500         4.83500         8.68100
C          11.55200        10.62800         8.55600
O          12.47600        11.31200         9.41400
H          13.36600        10.85500         9.43400
C          11.29800         9.14100         8.74000
O          10.76600         8.80500        10.03000
C          10.40400         7.44600        10.31100
O           9.54500         7.58500        11.45200
C          10.30100         7.49800        12.66800
C          10.33600         8.88100        13.29700
O          11.31000         9.73200        12.67700
H          11.20000         9.45700        11.72200
C          10.93200         8.91100        14.69500
O          10.53200        10.15600        15.28600
H          10.79900        10.95500        14.74600
C           9.53800         5.13800        13.12900
O           8.94800         4.09500        13.91800
H           8.64600         3.36200        13.30800
C           9.72200         6.53700        13.69300
O          10.58500         6.59000        14.83900
C          10.58900         7.77700        15.64600
O          11.44600         7.80500        16.79700
C          10.78800         7.60700        18.05700
C          10.27900         6.23400        18.46600
O           9.46400         5.59000        17.47600
H           9.82500         5.74000        16.55600
C           9.53500         6.24600        19.79100
O           9.21100         4.88300        20.10200
H           9.03000         4.55600        19.17500
C          12.35400         9.39900        18.78700
O          11.80100        10.54900        18.13100
H          11.52900        10.29700        17.20200
C          11.71800         8.07200        19.16600
O          10.88400         8.13000        20.33200
C          10.33600         6.92600        20.89000
O           9.67500         7.40200        22.07100
C          10.48300         7.25900        23.24800
C          10.85600         8.61200        23.83300
O          11.60000         9.31300        22.82500
H          11.34600         8.95300        21.92800
C          11.66400         8.40500        25.10400
O          11.72800         9.71400        25.68800
H          11.76700        10.48500        25.05100
C           8.76500         5.49300        24.07100
O           9.06800         4.33000        23.28600
H           9.44600         4.63300        22.41200
C           9.76700         6.58500        24.40700
O          10.74700         6.27200        25.40800
C          11.05700         7.46900        26.13600
O          11.92600         7.19500        27.24500
C          11.10100         7.18000        28.41800
C          10.51400         5.87500        28.93100
O           9.71100         5.16400        27.97700
H           8.84400         5.60700        27.75000
C           9.63200         6.22000        30.12000
O           8.83000         5.17700        30.69300
H           8.69400         4.63000        29.86700
C          12.93800         8.80700        29.05700
O          12.49100        10.03500        28.46400
H          11.72400         9.95800        27.82700
C          11.84900         7.86800        29.54800
O          10.84700         8.28000        30.48900
C          10.39700         7.07200        31.12000
O           9.68900         7.29000        32.34900
C          10.60100         7.07700        33.43600
C          10.47400         8.39300        34.18600
O          11.06700         9.42600        33.38600
H          10.53300         9.52100        32.54600
C          10.91800         8.28000        35.63500
O          10.70700         9.45000        36.43900
H          11.22400        10.15200        35.94800
C           9.93200         4.60700        34.12600
O           9.45500         3.88300        32.98300
H           9.18400         4.59900        32.34000
C           9.87800         6.10800        34.35800
O          10.55700         5.94100        35.61100
C          10.33700         7.11000        36.41300
O          11.14200         6.93100        37.58700
C          10.28400         6.96000        38.73800
C          10.00900         5.55800        39.25800
O           9.02200         4.98300        38.38900
H           8.98600         5.33000        37.45200
C           9.67600         5.39700        40.73200
O          10.20200         4.09600        41.03100
H           9.51400         3.50400        40.61200
C          11.69300         9.06000        39.57700
O          10.70500        10.08100        39.37400
H          10.55100         9.99900        38.38900
C          11.06300         7.69700        39.81500
O          10.35000         7.70900        41.06000
C          10.42700         6.38500        41.60900
O           9.83900         6.55700        42.90600
C           4.84700         2.71600        41.53700
C           4.50600         1.32200        42.04100
O           3.42900         0.84400        41.22200
H           3.72400         0.50100        40.33000
C           3.72500         2.82500         1.70200
O           3.06000         1.65200         2.19300
H           2.07900         1.76600         2.03600
C           6.30200         4.62700        41.97500
O           5.29000         5.51300        41.47500
H           5.22700         5.51900        40.47700
C           5.57500         4.83300         0.73700
O           5.02600         4.85400         2.06200
C           4.70400         3.56400         2.60000
O           4.02700         3.67500         3.86100
C           4.70400         3.89700         5.10600
C           4.89200         5.33400         5.56400
O           5.39600         6.23700         4.56900
H           4.99100         6.07300         3.67000
C           5.71400         5.30700         6.84200
O           5.89500         6.66200         7.28000
H           6.22100         7.22000         6.51700
C           4.10100         1.56200         5.67000
O           3.78000         0.43200         6.49500
H           3.62900        -0.44500         6.03900
C           4.17300         2.98500         6.20000
O           4.69900         3.09000         7.53100
C           4.96100         4.46200         7.85700
O           5.84500         4.42300         8.98600
C           5.17900         4.27600        10.24900
C           4.97200         2.86200        10.76500
O           4.20700         2.10700         9.81400
H           4.33000         2.48500         8.89600
C           4.30000         2.87900        12.12800
O           3.78600         1.65000        12.66300
H           3.15900         1.21100        12.02000
C           6.03300         6.58100        10.93400
O           4.79000         7.28300        11.08200
H           4.82700         8.20800        10.70400
C           5.97200         5.09600        11.25300
O           5.30500         4.95800        12.51600
C           5.26700         3.62100        13.03600
O           4.53800         3.96900        14.22200
C           5.05900         3.98700        15.55900
C           4.92900         5.37700        16.15800
O           5.40000         6.37700        15.24300
H           5.25200         6.01000        14.32400
C           5.85400         5.46500        17.36100
O           5.59000         6.81000        17.78500
H           6.18400         7.38100        17.21800
C           4.48800         1.56600        16.08300
O           3.87300         0.52200        16.85300
H           4.07200        -0.30100        16.32200
C           4.26700         3.02800        16.43400
O           4.76000         3.18800        17.77200
C           5.09700         4.49600        18.25500
O           5.82000         4.17600        19.45300
C           4.96600         4.01500        20.59400
C           4.46100         2.66900        21.08800
O           3.67300         2.05500        20.05800
H           4.02200         2.21000        19.13400
C           3.70500         2.46200        22.39000
O           3.77100         1.05800        22.68300
H           2.91300         0.60800        22.43800
C           5.21100         6.12400        21.57300
O           6.24200         6.90000        22.20100
H           6.01200         7.86800        22.30200
C           5.50300         4.66100        21.86100
O           4.84100         4.53000        23.12800
C           4.57600         3.15200        23.42700
O           4.06100         3.16000        24.76600
C           4.82300         3.36200        25.96500
C           4.70400         4.81000        26.41000
O           5.18500         5.85600        25.55400
H           4.87100         5.64700        24.62800
C           5.41300         4.91600        27.75000
O           5.45200         6.27900        28.19800
H           5.46900         6.78000        27.33300
C          10.78500        33.70200        26.70900
O          10.13000        32.59600        27.34800
H          10.13600        31.80000        26.74300
C           4.28000         2.41600        27.02400
O           4.78600         2.61300        28.35200
C           4.73100         3.99200        28.74600
O           5.66200         3.89700        29.83400
C           5.11300         3.49100        31.09600
C           5.11600         2.02900        31.51300
O           4.78000         1.08900        30.48200
H           4.64000         1.47000        29.56800
C           4.32100         1.74100        32.77700
O           4.50000         0.32300        32.91000
H           4.32300        -0.02000        31.98800
C           5.91800         5.70500        32.23600
O           4.92800         6.49400        31.56000
H           5.18600         6.48700        30.59400
C           5.61500         4.21800        32.33200
O           4.64700         4.05100        33.37800
C           4.79300         2.70500        33.85300
O           3.90800         2.53700        34.97000
C           4.49000         2.71200        36.27000
C           4.35500         4.13800        36.77900
O           4.63600         5.28600        35.96500
H           4.23000         4.98600        35.10200
C           4.97600         4.22600        38.16300
O           4.86100         5.43100        38.93300
H           4.51900         6.23700        38.44900
C          10.26000        32.92100        36.94500
O           9.22500        32.14900        37.57200
H           9.10100        31.16000        37.48600
C           3.82700         1.67100        37.15800
O           3.96400         2.01600        38.54400
C           4.30700         3.27400        39.14200
O           5.14100         2.65800        40.13400
C          12.75400        15.91100         2.19300
C          13.21400        17.26800         2.70000
O          14.09500        17.91500         1.77100
H          13.94000        17.75000         0.79700
C          13.96300        17.17700         4.02000
O          14.64100        18.36300         4.45900
H          15.41600        18.37800         3.82800
C          11.46700        13.96000         2.72100
O          12.42800        12.96900         3.11300
H          12.61000        12.36900         2.33400
C          11.71400        15.39000         3.17200
O          12.30300        15.45800         4.47800
C          12.92100        16.64700         4.99200
O          13.59900        16.31400         6.21100
C          12.90500        16.17200         7.45900
C          12.75600        14.74000         7.94700
O          12.57300        13.88100         6.81200
H          13.05500        14.12200         5.97000
C          11.84900        14.81600         9.16400
O          11.15800        13.64300         9.61900
H          11.78100        12.86800         9.72000
C          13.46100        18.43000         8.14700
O          14.22600        19.40000         8.87600
H          14.02500        20.27100         8.42700
C          13.63400        16.96900         8.52900
O          13.14000        16.79900         9.86500
C          12.74800        15.46100        10.20600
O          12.14300        15.59800        11.50100
C          13.10400        15.37300        12.54200
C          13.77700        16.65700        13.00100
O          14.64100        17.25800        12.02600
H          14.22300        17.17600        11.12200
C          14.48300        16.46300        14.33300
O          14.91700        17.79100        14.66100
H          15.62400        17.96200        13.97500
C          11.93100        13.23400        13.26600
O          11.16700        12.59600        14.30000
H          10.28800        13.06900        14.36600
C          12.34900        14.64600        13.64200
O          13.22000        14.46600        14.76800
C          13.57700        15.74200        15.31800
O          14.25700        15.49400        16.55700
C          13.56900        15.55900        17.81500
C          13.25200        14.13700        18.24700
O          12.38200        13.55900        17.26300
H          12.62900        13.66300        16.30000
C          12.70400        13.95400        19.65300
O          12.54600        12.57800        20.03000
H          12.25900        12.00000        19.26600
C          14.45800        17.73000        18.48200
O          13.18500        18.38300        18.37400
H          13.35800        19.32800        18.65300
C          14.50900        16.24300        18.79500
O          14.11400        15.97200        20.14800
C          13.65300        14.68600        20.58800
O          13.11400        14.91700        21.89800
C          13.87500        14.82000        23.11100
C          14.10600        16.23500        23.61500
O          15.10600        16.66600        22.67900
H          14.84800        16.74000        21.71600
C          14.65500        16.22400        25.03200
O          15.02500        17.58100        25.31400
H          15.47000        17.91200        24.48200
C          12.91000        12.61900        23.68700
O          11.65100        12.00800        24.00300
H          10.92600        12.36900        23.41600
C          12.99100        14.08000        24.10100
O          13.20600        14.21800        25.51300
C          13.59900        15.54600        25.89100
O          14.11500        15.29100        27.20500
C          13.11100        15.24600        28.23000
C          12.79200        13.80300        28.58400
O          11.94400        13.35500        27.51600
H          12.45700        13.51000        26.67200
C          12.43700        13.52600        30.03500
O          12.82500        12.24600        30.55300
H          12.67200        11.49700        29.90800
C          13.68500        17.57800        29.04100
O          14.32200        18.59000        29.83400
H          14.26300        19.45800        29.34000
C          13.57000        16.10500        29.39700
O          13.00800        15.88500        30.69900
C          13.15900        14.48400        30.96900
O          12.72700        14.20000        32.30800
C          13.14600        14.50900        33.64500
C          13.25200        15.96900        34.05300
O          14.19500        16.68200        33.24000
H          14.10800        16.49100        32.26200
C          13.81000        16.07600        35.46300
O          14.25000        17.34300        35.97100
H          14.85200        17.83900        35.34600
C          11.78000        12.42400        34.27600
O          10.90900        11.92000        35.29900
H          10.11100        12.51300        35.19500
C          12.19900        13.84200        34.63000
O          12.73000        13.89300        35.96200
C          12.90600        15.25800        36.37000
O          13.73300        14.90800        37.49000
C          13.14000        14.78800        38.79100
C          12.93100        13.34400        39.21700
O          12.01300        12.75000        38.28800
H          12.05100        13.26600        37.43300
C          12.31500        13.37200        40.60700
O          11.84400        12.08400        41.02700
H          11.03700        11.84800        40.48600
C          14.09400        16.94900        39.48600
O          12.89100        17.71800        39.33900
H          13.08200        18.68900        39.47700
C          13.97000        15.48100        39.85900
O          13.47500        15.49300        41.20600
C          13.30500        14.09900        41.50200
O          12.49100        14.39100        42.64800
C           6.87900        10.85500        41.24100
C           6.65900         9.38700        41.57000
O           5.68100         8.88300        40.64900
H           6.06900         9.06100        39.74500
C           5.88800        10.74800         1.22300
O           5.91000         9.35300         1.56000
H           5.44400         8.94500         0.77500
C           7.22700        14.67100         0.14200
O           8.00500        15.61300         0.89500
H           8.16800        16.44000         0.35800
C           7.26900        13.21100         0.56300
O           6.64000        12.94100         1.82400
C           6.72800        11.55900         2.19700
O           6.05500        11.44400         3.45900
C           6.71900        11.47600         4.73100
C           7.18700        12.88200         5.07000
O           7.98900        13.59400         4.11700
H           7.32700        13.89300         3.43100
C           7.87500        12.73300         6.41700
O           8.45700        14.00300         6.74300
H           9.37000        13.83700         7.11500
C           5.42400         9.36500         5.23000
O           6.49100         8.50900         4.79400
H           6.10900         7.87300         4.12300
C           5.84400        10.73700         5.73000
O           6.61600        10.83700         6.93600
C           6.99200        12.10800         7.48500
O           7.87800        11.73300         8.55000
C           7.36400        11.84300         9.88500
C           6.87700        10.58200        10.58000
O           6.16600         9.70400         9.69500
H           6.38100         9.71200         8.71800
C           6.30800        10.73300        11.98200
O           6.32100         9.51000        12.73100
H           5.75000         8.72500        12.49000
C           8.29900        14.22100        10.50100
O           8.92500        15.04300        11.49700
H           9.03700        15.95600        11.10400
C           8.10400        12.75500        10.85000
O           7.33700        12.90600        12.05400
C           7.04300        11.74600        12.84500
O           6.34000        12.02300        14.06500
C           7.21100        11.77100        15.17700
C           7.83100        13.05900        15.69600
O           8.74500        13.66600        14.77100
H           8.25400        13.88300        13.92700
C           8.64500        12.88700        16.96800
O           9.45600        13.96500        17.45800
H          10.38600        13.59700        17.44700
C           5.68200         9.88500        15.95600
O           6.63500         8.82000        15.82300
H           6.23300         8.07100        15.29700
C           6.37100        11.19400        16.30400
O           7.06100        11.16500        17.56300
C           7.58800        12.43800        17.96400
O           8.28300        11.97000        19.12900
C           7.64700        12.04500        20.41300
C           7.09900        10.65600        20.70200
O           5.96000        10.32900        19.89200
H           6.30900        10.30300        18.95500
C           6.57900        10.68100        22.13100
O           5.83500         9.50100        22.47000
H           4.97000         9.89900        22.77400
C           8.56500        14.11200        21.20200
O           9.47800        15.08700        21.72800
H           9.31200        15.99400        21.34000
C           8.59500        12.61400        21.45600
O           8.09100        12.46300        22.79100
C           7.60500        11.16000        23.14500
O           6.90300        11.17400        24.39700
C           7.61200        10.87200        25.60700
C           8.23500        12.10400        26.24300
O           9.21500        12.73000        25.40100
H           8.97500        12.58300        24.44200
C           8.87000        11.83100        27.59700
O           9.46400        12.82800        28.44100
H          10.44000        12.75800        28.23600
C           5.91800         9.03900        26.14800
O           6.70700         7.90700        25.75200
H           6.11100         7.22800        25.32500
C           6.57700        10.33700        26.58400
O           7.11600        10.06500        27.88500
C           7.85000        11.14100        28.48800
O           8.20500        10.71200        29.81000
C           7.26600        11.17900        30.78900
C           6.55100         9.96000        31.35000
O           5.82800         9.35600        30.26800
H           6.21600         9.49500        29.35600
C           5.78400        10.06100        32.65800
O           5.56000         8.72900        33.14200
H           5.46000         8.18800        32.30700
C           8.47600        13.20600        31.56600
O           8.82700        14.22900        32.50900
H           9.15100        15.02200        31.99400
C           7.92000        11.85400        31.98300
O           6.99000        12.12600        33.04200
C           6.66300        10.85100        33.61400
O           6.09100        11.30100        34.85100
C           6.91200        10.88600        35.95300
C           7.47600        12.21000        36.44200
O           8.38600        12.93200        35.59900
H           8.02200        12.95600        34.66800
C           8.05600        11.86300        37.80300
O           8.92300        12.77300        38.49500
H           9.88800        12.55300        38.34900
C           5.80300         8.71300        36.45600
O           5.03100         7.87400        37.32900
H           4.88600         7.04800        36.78400
C           6.05700        10.12600        36.95400
O           6.59500        10.00000        38.27800
C           6.95800        11.32100        38.70400
O           7.54200        11.16000        40.00600
C          13.83800        23.65000         3.37600
C          13.52000        25.05900         3.84900
O          14.24300        26.03600         3.08600
H          14.12300        25.61200         2.18800
C          13.77500        25.59400         5.24900
O          12.81900        26.60500         5.60200
H          12.83600        27.17100         4.77800
C          13.71200        21.28200         4.31000
O          13.02000        20.23700         5.01000
H          13.61800        19.43600         5.03500
C          13.44100        22.75900         4.54200
O          14.02000        23.18300         5.78400
C          13.63200        24.47700         6.26900
O          14.65700        24.46500         7.27400
C          14.28000        23.99600         8.57700
C          14.79600        22.64000         9.03000
O          14.12000        21.80400         8.08000
H          14.39100        22.14400         7.18000
C          14.22000        22.22400        10.37400
O          14.86300        21.05700        10.90700
H          14.86200        20.33900        10.21200
C          13.96800        26.43100         9.32800
O          14.40400        27.33500        10.35400
H          13.82100        28.12000        10.14100
C          14.37700        25.01500         9.70000
O          13.79600        24.50100        10.90700
C          14.42400        23.31400        11.41400
O          13.59300        23.23800        12.58100
C          14.27700        23.55700        13.80200
C          13.86100        24.91100        14.35300
O          14.61300        25.88000        13.60800
H          14.47100        25.70900        12.63300
C          14.07900        25.24300        15.82000
O          13.21600        26.38100        15.95700
H          13.62700        27.13500        15.44500
C          14.06700        21.09800        14.45800
O          13.53300        20.17600        15.42000
H          14.10800        19.37200        15.26900
C          13.78800        22.54600        14.82600
O          14.20500        22.87300        16.16000
C          13.65500        24.08100        16.70400
O          14.48500        24.22100        17.86600
C          13.83600        23.76600        19.06200
C          14.43000        22.46400        19.57300
O          14.40400        21.46200        18.54600
H          14.28500        22.01700        17.72300
C          13.93300        22.02100        20.93900
O          14.47500        20.74300        21.30400
H          15.44200        20.88500        21.51600
C          13.78300        26.10700        19.81800
O          14.47600        27.03200        20.66700
H          14.10700        27.93400        20.44100
C          14.15700        24.69100        20.22500
O          13.63700        24.32300        21.51000
C          14.32200        23.12600        21.90700
O          13.57300        22.96100        23.12000
C          14.19600        23.26800        24.37600
C          13.74900        24.63000        24.88100
O          14.05900        25.61200        23.88200
H          13.99000        25.17000        22.98800
C          14.22100        24.99800        26.27900
O          13.83300        26.20500        26.95000
H          13.68100        26.99200        26.35200
C          13.92200        20.77600        25.12000
O          13.60200        19.96200        26.25800
H          13.72500        19.01500        25.96300
C          13.87800        22.25600        25.46400
O          14.51500        22.65300        26.68700
C          14.04600        23.87100        27.28300
O          14.88700        23.81400        28.44500
C          14.23900        23.56600        29.70100
C          14.46700        22.12200        30.11700
O          14.07600        21.15900        29.12800
H          14.16800        21.76200        28.33500
C          13.76500        21.79200        31.42400
O          14.10100        20.52200        32.00300
H          14.10100        20.06500        31.11400
C          14.86300        25.75000        30.35600
O          15.18200        26.75000        31.33500
H          14.51400        27.48400        31.21800
C          14.62000        24.36600        30.93700
O          13.67400        24.18000        32.00000
C          14.04600        22.87100        32.45700
O          13.19600        22.70100        33.60100
C          13.78900        22.94400        34.88500
C          13.21800        24.25700        35.39500
O          13.21600        25.26200        34.37100
H          12.87900        24.95400        33.48100
C          13.83800        24.53400        36.75500
O          13.79000        25.82100        37.38900
H          14.00700        26.57400        36.76800
C          14.01600        20.52900        35.59200
O          13.19700        19.88000        34.60700
H          13.51100        20.05300        33.67400
C          13.41700        21.88900        35.91400
O          14.16000        22.17800        37.10700
C          13.62900        23.36800        37.70700
O          14.34800        23.44000        38.94600
C          13.53700        22.80800        39.94700
C          14.16600        21.48100        40.33700
O          13.93200        20.53100        39.28800
H          14.25200        20.98400        38.45600
C          13.45600        22.46700        -0.09500
O          14.30000        21.31900         0.07200
H          13.83300        20.74700         0.74600
C          13.10700        25.16700        40.87300
O          13.47500        26.30900        40.08500
H          13.22100        26.32700        39.11800
C          13.45400        25.36400        -0.70200
O          13.08100        24.87800         0.59600
C          13.65300        23.59800         0.90200
O          13.10000        23.31000         2.19400
C           9.08500        20.40900         0.96800
C           9.23500        18.91100         1.17400
O           8.68000        18.06800         0.15400
H           9.11800        18.23200        -0.73000
C           8.75400        18.57500         2.57600
O           8.89800        17.21700         3.01500
H           8.74700        16.63900         2.21300
C           9.62300        22.79900         2.02100
O          10.16800        23.71000         2.98700
H           9.94800        24.67100         2.81700
C           9.61400        21.28100         2.09500
O           8.79800        20.93100         3.22200
C           9.06300        19.59200         3.66300
O           8.40600        19.63000         4.93900
C           9.18300        19.67500         6.14500
C           9.27500        21.10800         6.64100