# freq=raman b3lyp/6-31+g(2d,p) geom=connectivity
550 7000.com
550 7000.com
C           9.89200         7.69100         1.83800
0 1
O          10.28300         9.95500         1.57700
H          10.14400         9.60200         0.65200
C          10.70700         9.14700         3.80800
O          10.69100        10.35700         4.57900
H          10.56000        11.13600         3.96400
C           9.31900         5.23300         2.40400
O           9.06100         4.10200         3.24800
H           9.20900         3.27500         2.70500
C           9.44600         6.67300         2.87500
O          10.54100         6.62000         3.80100
C          10.38100         7.84800         4.52600
O          10.93500         7.57200         5.82100
C          10.28800         7.89500         7.06000
C           9.72000         6.51400         7.33900
O           8.73600         5.82000         6.55800
H           9.06800         5.84400         5.61500
C           9.25600         6.52400         8.78600
O           8.77100         5.34200         9.43900
H           8.74600         4.59300         8.77700
C          11.81100         9.70200         7.66000
O          10.83100        10.74700         7.56500
H          10.87300        11.11600         6.63600
C          11.36800         8.30200         8.05100
O          10.87300         8.27400         9.39700
C          10.40100         6.95100         9.69100
O           9.86300         7.05600        11.01700
C          10.55600         7.27600        12.25400
C          10.40800         8.70300        12.75600
O          11.10100         9.55700        11.83500
H          10.92900         9.11600        10.95500
C          10.77800         8.92000        14.21500
O          10.23800        10.03600        14.93600
H          10.62300        10.83000        14.46600
C           9.85600         4.87700        12.65900
O           9.58900         3.90500        13.68100
H           9.71600         3.01500        13.24500
C           9.80500         6.31200        13.15700
O          10.55600         6.46000        14.37100
C          10.39900         7.71200        15.05500
O          11.31100         7.57300        16.15400
C          10.60000         7.87100        17.36500
C           9.31600         7.20900        17.83800
O           8.28400         8.17800        18.07300
H           7.46200         7.78900        18.49000
C           9.48300         6.17400        18.93800
O          10.12600         5.02700        18.36300
H           9.82600         4.91000        17.41600
C          12.06200         9.55700        18.48000
O          11.11500        10.62700        18.61600
H          10.45600        10.65400        17.86400
C          11.50500         8.14500        18.55500
O          10.90400         7.95200        19.84300
C          10.34800         6.65300        20.09200
O           9.70400         6.50200        21.36600
C          10.45800         6.61100        22.58300
C          10.71800         8.01200        23.10900
O          11.55900         8.73900        22.20300
H          11.26800         8.60400        21.25600
C          11.43200         7.94500        24.45000
O          11.77400         9.29400        24.79900
H          12.44500         9.71900        24.19200
C           9.51800         4.46900        23.36700
O           8.62200         3.75300        24.22800
H           8.60000         2.82000        23.86700
C           9.60100         5.95900        23.65600
O          10.15900         6.06400        24.97400
C          10.47800         7.36800        25.48300
O          11.17300         7.04400        26.69600
C          10.46200         7.08000        27.94200
C          10.01700         5.66200        28.25900
O           8.69700         5.42500        27.74800
H           8.73900         5.72700        26.79500
C          10.16400         5.34300        29.73800
O          10.83000         4.09400        29.97100
H          10.35800         3.30900        29.56900
C          11.61000         9.12400        28.37600
O          12.14200        10.12500        29.25700
H          13.08600         9.92200        29.51600
C          11.28400         7.78200        29.01000
O          10.68400         7.71300        30.31100
C          10.80800         6.33500        30.69300
O           9.92800         6.35700        31.82700
C          10.58000         6.41000        33.10400
C          10.73700         7.80100        33.69700
O          11.69100         8.48600        32.87400
H          11.42700         8.54700        31.91100
C          11.37600         7.83800        35.07600
O          10.94300         9.02500        35.75700
H          11.10600         9.80100        35.14800
C           9.48500         4.24700        33.61700
O           8.76700         3.31600        34.43900
H           8.92600         2.34100        34.28300
C           9.90300         5.59100        34.19200
O          10.75200         5.50200        35.34500
C          10.75400         6.78800        35.98200
O          11.38600         6.62100        37.25900
C          10.58600         6.65300        38.45000
C          10.21200         5.25600        38.91500
O           9.49600         4.49400        37.93200
H           9.75800         4.76300        37.00500
C           9.33800         5.32000        40.15700
O           8.58000         4.21700        40.67500
H           8.37800         3.67600        39.85900
C          11.38200         8.79200        39.09800
O          12.13900         9.66400        39.94900
H          12.98500         9.13700        40.02500
C          11.20800         7.37900        39.63100
O          10.41700         7.44700        40.82700
C          10.20100         6.06900        41.16000
O           9.46500         6.29700        42.37000
C           4.69300         4.57800         0.45300
C           4.96100         1.54100        42.55700
O           3.94500         0.94400        41.73800
H           4.12900         1.22800        40.79700
C           4.49700         2.69600         2.25400
O           5.29400         1.52400         2.47900
H           5.23000         0.80400         1.78900
C           5.68800         6.81400         1.03500
O           4.48600         7.58800         1.16100
H           4.00300         7.54400         0.28600
C           5.56100         5.35200         1.43200
O           4.96400         5.08100         2.70800
C           5.01500         3.74400         3.22600
O           4.09300         3.91100         4.31300
C           4.80500         4.12000         5.54100
C           4.66700         5.51400         6.13300
O           5.31600         6.52500         5.34900
H           5.36900         6.18600         4.40900
C           5.22200         5.57800         7.54600
O           4.61400         6.79900         7.99200
H           4.89300         7.33800         7.19800
C           4.77700         1.62600         6.04400
O           4.01200         0.57100         6.64600
H           3.94100        -0.23100         6.05300
C           4.25900         3.00500         6.41800
O           4.84500         3.14200         7.72100
C           4.82300         4.39700         8.41600
O           5.68000         4.13600         9.53600
C           5.14000         4.01100        10.86000
C           4.92800         2.54500        11.20000
O           4.29900         1.77700        10.16400
H           4.69600         1.96200         9.26500
C           4.14200         2.47500        12.49900
O           4.27400         1.08000        12.80900
H           3.65200         0.58500        12.20300
C           6.09000         6.28100        11.54000
O           5.10300         7.05900        10.84700
H           4.91200         6.69500         9.93500
C           6.00300         4.79300        11.83600
O           5.23100         4.59100        13.03000
C           5.02200         3.24200        13.47300
O           4.32300         3.42700        14.71200
C           5.12400         3.44000        15.90300
C           5.04400         4.86900        16.41300
O           5.43000         5.98500        15.59600
H           5.50700         5.36300        14.81700
C           5.64900         4.94100        17.80500
O           5.41200         6.16800        18.51100
H           5.39300         6.94800        17.88600
C           4.35200         1.06600        16.34400
O           3.70000         0.20800        17.29200
H           3.43700        -0.68200        16.91800
C           4.45000         2.48600        16.87600
O           5.15600         2.56000        18.12300
C           5.03400         3.87100        18.69200
O           5.55800         4.04800        20.01600
C           4.81700         3.74400        21.20600
C           5.08600         2.29800        21.58900
O           4.74600         1.26300        20.65500
H           5.11500         1.56200        19.77500
C           4.41000         1.94700        22.90400
O           4.65900         0.59300        23.31100
H           4.36500         0.19300        22.44300
C           5.30600         5.94200        22.32100
O           5.54400         6.86400        23.39500
H           5.45800         7.77800        22.99600
C           5.44900         4.43100        22.40600
O           4.62700         4.16000        23.55000
C           4.99400         2.84200        23.98400
O           4.21100         2.75200        25.18300
C           4.92700         3.03000        26.39500
C           4.70600         4.42800        26.95100
O           5.29900         5.47800        26.17300
H           4.88500         5.36700        25.27000
C           5.15800         4.70900        28.37500
O           4.77000         5.94400        28.99600
H           5.01600         6.69000        28.37700
C          10.67000        33.34200        26.99000
O          10.46100        32.25300        27.90100
H          10.66800        31.43700        27.36200
C           4.31500         2.14200        27.46500
O           4.91700         2.38900        28.74400
C           4.77300         3.65700        29.40100
O           5.52300         3.70300        30.62300
C           4.78500         3.30200        31.78700
C           4.74400         1.83700        32.19000
O           4.32200         0.95200        31.14200
H           4.35900         1.44100        30.27100
C           3.88900         1.73700        33.44200
O           3.08500         0.59700        33.78000
H           3.02100         0.12800        32.89900
C           5.57000         5.51600        32.63300
O           6.27000         6.18700        33.69100
H           6.28700         7.18600        33.66300
C           5.49200         4.02600        32.92100
O           4.89800         3.86400        34.21800
C           4.54300         2.51800        34.57000
O           3.78300         2.48800        35.78700
C           4.55200         2.65700        36.98700
C           4.34200         4.04800        37.56100
O           4.39900         5.08000        36.56500
H           4.49800         4.83200        35.60100
C           5.12200         4.36500        38.82700
O           4.86900         5.68800        39.32200
H           5.31200         6.29600        38.66300
C          10.27400        33.01100        37.58600
O          10.43300        31.88400        38.45900
H          10.25900        31.01800        37.99000
C           4.05700         1.79100        38.13400
O           4.93300         1.89900        39.26600
C           4.75800         3.23100        39.77100
O           5.60800         3.11600        40.92200
C          13.02500        15.54100         1.86400
C          13.48500        16.84400         2.49900
O          14.37800        17.45700         1.55800
H          14.08800        17.23200         0.62700
C          14.23500        16.71100         3.81400
O          14.73500        17.94000         4.36000
H          15.39800        18.09800         3.62900
C          11.46000        13.71700         2.38800
O          10.49900        12.80300         2.93600
H           9.66800        13.34000         3.07900
C          12.10800        14.97800         2.93700
O          12.74600        14.83800         4.21500
C          13.21300        16.08500         4.74900
O          13.77000        15.97200         6.06700
C          12.91600        15.91800         7.21800
C          12.44200        14.53000         7.61600
O          11.59400        14.02100         6.57600
H          12.05600        13.99800         5.68900
C          11.54100        14.61200         8.83700
O          10.99300        13.30700         9.07200
H          10.69800        12.97800         8.17500
C          13.95300        17.99300         8.16900
O          14.35700        18.72800         9.33300
H          14.39400        19.66200         8.97700
C          13.50900        16.56800         8.45800
O          12.56400        16.49700         9.53600
C          12.47800        15.11800         9.92200
O          11.89800        15.20900        11.23200
C          12.54400        14.95600        12.48800
C          12.93300        16.34000        12.98100
O          14.03900        16.84900        12.22100
H          13.62700        17.01800        11.32600
C          13.57600        16.43300        14.35500
O          13.84100        17.80000        14.70300
H          14.43300        17.98900        13.91900
C          11.13400        13.03800        12.94100
O          10.59200        12.32800        14.06400
H           9.83000        12.86600        14.42600
C          11.59900        14.36400        13.52100
O          12.24300        14.39700        14.80300
C          12.49800        15.75700        15.18600
O          13.16100        15.43500        16.41600
C          12.50900        15.52300        17.69200
C          12.36400        14.08400        18.16000
O          11.54300        13.31300        17.27100
H          11.87300        13.43000        16.33400
C          11.93300        13.94300        19.61100
O          12.08800        12.62200        20.14800
H          11.74400        11.89600        19.55300
C          13.25800        17.70500        18.18800
O          13.91700        18.70500        18.97900
H          13.96200        19.54400        18.43700
C          13.40600        16.26900        18.66600
O          13.01300        16.07800        20.03300
C          12.99200        14.69200        20.40400
O          12.44800        14.99700        21.69700
C          13.20800        14.75000        22.88800
C          13.90200        16.07200        23.17000
O          14.92900        16.46300        22.24700
H          14.69100        16.32900        21.28500
C          14.53700        16.02500        24.55000
O          15.23300        17.24200        24.85500
H          15.88900        17.42100        24.12100
C          11.59900        13.13300        23.60600
O          12.25300        11.89400        23.29700
H          11.77800        11.54200        22.49000
C          12.32200        14.38800        24.06800
O          13.00100        14.43400        25.33200
C          13.54200        15.72200        25.65900
O          13.95800        15.35700        26.98300
C          13.14500        15.12000        28.14200
C          13.22300        13.67400        28.60300
O          12.46800        12.74500        27.81200
H          12.64100        12.79900        26.82800
C          12.44600        13.63000        29.90800
O          12.14000        12.36100        30.50300
H          12.01300        11.65200        29.81000
C          13.75100        17.43600        28.88700
O          14.46100        18.35500        29.73100
H          14.22900        19.27700        29.42300
C          13.82500        15.95400        29.21600
O          13.07000        15.84800        30.43200
C          13.11100        14.51100        30.95300
O          12.28300        14.56900        32.12300
C          13.00400        14.30300        33.33500
C          13.32700        15.61700        34.02700
O          13.62200        16.71200        33.14800
H          13.03700        16.69200        32.33700
C          14.31600        15.45600        35.17000
O          14.65200        16.69700        35.80700
H          15.28900        17.20200        35.22500
C          11.74700        12.22200        33.84200
O          11.07100        11.35000        34.75900
H          10.18600        11.74100        35.00900
C          12.32300        13.50000        34.43100
O          13.15000        13.32600        35.59000
C          13.39800        14.65300        36.07800
O          13.97700        14.28100        37.33700
C          13.14300        14.79800        38.38500
C          12.06700        13.98600        39.08700
O          11.06300        14.74800        39.77200
H          10.44800        15.13000        39.08100
C          12.82700        13.09200        40.05400
O          13.49400        11.99600        39.41200
H          12.83200        11.26100        39.55900
C          13.71200        17.11200        39.18400
O          14.78400        17.94800        39.64400
H          14.62700        18.87800        39.31000
C          13.96100        15.62300        39.36400
O          13.91500        15.23400        40.74500
C          13.57800        13.88700        41.10900
O          12.84500        14.23400        42.29300
C           7.33500        10.75300        41.29700
C           6.94300         9.37700        41.80800
O           5.99300         8.61900        41.04500
H           6.56700         8.49800        40.23500
C           5.88500        11.12700         1.35000
O           6.06800         9.89700         2.06500
H           5.35100         9.35700         1.62300
C           8.23200        14.60300         0.13100
O           8.39900        15.64700         1.10200
H           8.74900        16.42000         0.57300
C           7.74100        13.22100         0.53100
O           6.90800        13.36200         1.69100
C           6.63400        12.07800         2.26900
O           5.94000        12.15200         3.52300
C           6.85100        12.13700         4.63100
C           7.51700        13.41300         5.11900
O           8.18500        14.01000         3.99800
H           7.56600        14.15500         3.22600
C           8.43000        13.19700         6.31500
O           9.02200        14.42700         6.75900
H           9.98500        14.23000         6.94400
C           5.70700         9.99100         5.33600
O           6.66200         8.92000         5.33000
H           6.06700         8.15400         5.09000
C           6.15000        11.38500         5.75100
O           7.03400        11.41700         6.88100
C           7.56700        12.63100         7.43000
O           8.17100        12.18600         8.65300
C           7.31400        12.33700         9.79400
C           7.00700        10.89800        10.17700
O           5.86300        10.67200         9.34100
H           6.29600        10.88000         8.46400
C           6.37000        10.71200        11.54500
O           6.28300         9.37700        12.06300
H           5.90800         8.67900        11.45300
C           8.39100        14.47200        10.58700
O           7.54700        15.57800        10.93800
H           7.99300        16.42800        10.65700
C           8.07100        13.02400        10.91900
O           7.32100        12.84100        12.12900
C           7.11200        11.50500        12.60800
O           6.17100        11.77600        13.65800
C           6.82700        11.66400        14.92900
C           7.36800        12.96600        15.49600
O           8.18300        13.71400        14.58100
H           7.89600        13.60700        13.62900
C           8.16100        12.70100        16.76600
O           8.86400        13.81200        17.33800
H           9.80300        13.48900        17.46000
C           6.00400         9.31100        15.59000
O           5.51900         8.31000        16.49700
H           5.30700         7.44200        16.04800
C           6.09500        10.78900        15.93400
O           6.67700        10.87900        17.24200
C           7.15700        12.13100        17.75500
O           7.88700        11.81000        18.94700
C           7.12100        11.82900        20.16100
C           6.65600        10.49800        20.73000
O           6.16500         9.65600        19.67700
H           6.39100        10.11500        18.81800
C           5.74500        10.68400        21.93200
O           5.07000         9.52800        22.45000
H           4.18300         9.76200        22.84800
C           8.23300        13.89200        20.83100
O           8.56500        15.02800        21.64300
H           9.04200        15.73600        21.12200
C           7.87800        12.49100        21.30100
O           7.15500        12.54000        22.53900
C           6.73600        11.22900        22.94700
O           6.17000        11.32200        24.26200
C           7.03700        11.12800        25.39000
C           7.17300        12.50100        26.02700
O           7.87500        13.54000        25.32900
H           7.68500        13.58900        24.34800
C           7.78100        12.43100        27.41800
O           7.72200        13.71300        28.06000
H           8.05600        14.40900        27.42400
C           6.00300         8.77100        26.09800
O           5.48100         7.89400        27.10700
H           5.61500         6.96300        26.77000
C           6.27400        10.24300        26.36300
O           6.82500        10.16700        27.68600
C           7.02600        11.44900        28.30000
O           7.84600        11.05800        29.41000
C           7.24800        11.06900        30.71400
C           6.64000         9.74500        31.14700
O           5.61300         9.19700        30.30700
H           6.07400         9.16000        29.42100
C           6.20800         9.92200        32.59300
O           5.48400         8.74300        32.97500
H           4.58400         8.84700        32.55300
C           8.85400        12.93200        31.38900
O           8.07600        14.08500        31.74200
H           8.47900        14.83000        31.21100
C           8.28400        11.56100        31.71200
O           8.00600        11.50700        33.11900
C           7.35100        10.29600        33.52300
O           6.74400        10.54200        34.80000
C           7.43400        10.35700        36.04400
C           7.74700        11.75800        36.54400
O           8.25200        12.74600        35.63400
H           7.60600        12.79500        34.87300
C           8.41500        11.72800        37.90900
O           8.26500        13.11900        38.22800
H           8.40200        13.52300        37.32400
C           6.27800         8.23000        36.46300
O           5.77100         7.29400        37.42600
H           5.02100         6.79800        36.98800
C           6.62900         9.57700        37.07200
O           7.44400         9.53200        38.25200
C           7.62400        10.82700        38.84300
O           8.16700        10.55800        40.14400
C          13.73200        23.49400         3.75900
C          13.11500        24.80300         4.22300
O          13.08500        25.91300         3.31400
H          12.67700        25.61200         2.45200
C          13.81800        25.27700         5.48500
O          13.37000        26.55100         5.96900
H          13.34000        27.22800         5.23300
C          14.17800        21.16000         4.60900
O          14.13000        20.12000         5.59600
H          14.34600        19.28200         5.09400
C          13.62600        22.53800         4.93700
O          14.54700        23.05500         5.90800
C          13.71800        24.09800         6.44000
O          14.62600        24.36500         7.51800
C          14.18200        24.04800         8.84600
C          14.71800        22.67100         9.20500
O          14.24800        21.53100         8.47000
H          14.62500        21.50000         7.54400
C          14.43500        22.34900        10.66300
O          15.18500        21.18000        11.02500
H          14.85200        20.28200        10.73600
C          14.14200        26.34300         9.54600
O          12.75400        26.50500         9.22200
H          12.49300        27.31300         8.69300
C          14.73200        24.98900         9.90500
O          14.35500        24.82800        11.28000
C          14.78700        23.49600        11.59500
O          13.78100        23.39500        12.61400
C          14.15400        23.76900        13.94800
C          13.48900        24.96900        14.60200
O          13.88300        25.99200        13.67600
H          13.50900        25.60300        12.83400
C          13.94400        25.26600        16.02100
O          13.37900        26.49000        16.51500
H          13.77200        27.29200        16.06500
C          14.28800        21.27300        14.60900
O          13.90000        20.32800        15.61700
H          13.87300        19.41000        15.22100
C          13.77000        22.66700        14.92200
O          14.39100        22.97900        16.17700
C          13.74200        24.03900        16.89500
O          14.64400        24.25400        17.99000
C          14.14400        23.84800        19.27200
C          14.48200        22.41200        19.63900
O          14.32200        21.40700        18.62800
H          14.51400        21.75300        17.71000
C          14.01700        21.88900        20.98900
O          14.70500        20.64200        21.17200
H          14.30100        20.06000        20.46600
C          14.35600        26.09800        20.45400
O          14.54700        26.91600        21.61800
H          14.07100        27.79500        21.63400
C          14.66500        24.61000        20.48000
O          13.96800        24.15400        21.64900
C          14.45600        22.87000        22.06300
O          13.74600        22.73000        23.30300
C          14.43300        22.99800        24.53400
C          13.88200        24.20200        25.28100
O          13.61100        25.35800        24.47600
H          13.41200        24.93200        23.59400
C          14.78000        24.59400        26.44300
O          14.61900        25.94600        26.89800
H          14.49200        26.40500        26.01800
C          14.65800        20.56200        25.22300
O          14.71300        19.61800        26.30200
H          14.77600        18.73800        25.83000
C          14.37300        21.98700        25.66800
O          15.04400        22.39400        26.86900
C          14.46900        23.54700        27.50000
O          15.07000        23.89400        28.75700
C          14.32100        23.33400        29.84500
C          14.75500        21.93600        30.25100
O          14.62100        20.92800        29.23700
H          15.02500        21.31000        28.40600
C          14.11900        21.38300        31.51600
O          14.86900        20.22900        31.92200
H          14.78500        19.49200        31.25200
C          13.55500        25.56200        30.63600
O          14.47900        26.44300        29.98100
H          14.70700        26.16400        29.04800
C          14.21200        24.25600        31.04900
O          13.38300        23.57800        32.00400
C          14.18800        22.51300        32.52900
O          13.53100        22.10400        33.73800
C          14.27900        22.48000        34.90400
C          13.76600        23.80200        35.45000
O          13.97200        24.80400        34.44400
H          13.34400        24.48400        33.73400
C          14.21800        24.09600        36.87100
O          13.63400        25.40100        36.99200
H          13.81500        25.79300        36.08900
C          14.11900        20.10600        35.67100
O          13.53100        19.06800        36.46800
H          13.99200        18.21500        36.22200
C          13.79400        21.55300        36.00600
O          14.24400        21.96800        37.30400
C          13.61900        23.12600        37.87600
O          14.43300        23.10300        39.05800
C          14.14700        22.49500        40.32600
C          14.68000        21.12400        40.70900
O          14.34000        20.32300        39.56800
H          14.13600        20.89000        38.77000
C          13.82700        22.10500         0.24100
O          14.65200        20.98400         0.59000
H          14.76900        20.53900        -0.29800
C          13.98400        26.39100        -0.48400
O          13.96400        27.22100         0.68700
H          13.70800        28.18400         0.60000
C          14.25100        24.91400        -0.24700
O          13.50600        24.38900         0.86100
C          14.04500        23.14400         1.32800
O          13.27500        22.93200         2.52000
C           9.35000        20.60500         0.64200
C           9.53000        19.18900         1.16300
O           9.12100        18.21500         0.19200
H           9.27600        18.52000        -0.74700
C           8.78700        18.91000         2.46000
O           9.01500        17.57100         2.92300
H           8.78100        16.87600         2.24300
C           9.74700        22.90100         1.47000
O          10.32300        23.59900         0.35600
H          10.09900        24.55600         0.53900
C           9.89900        21.42400         1.79900
O           9.28500        21.26700         3.08600
C           9.28800        19.89400         3.50400
O           8.36500        19.99100         4.59800
C           9.09400        20.13000         5.82700
C           9.14300        21.55700         6.34900