# freq=raman b3lyp/6-31+g(d,p) geom=connectivity

310 7000.com

0 1
O           7.65400         7.58400        22.68800
C           8.46400         7.78600        23.85500
C           7.86900         9.06000        24.43000
O           7.81000        10.11400        23.45800
H           7.89100         9.72600        22.54000
C           8.34500         9.43300        25.82500
O           7.64700        10.62800        26.20500
H           7.87000        10.81400        27.16200
C           8.52200         5.30300        24.54200
O           7.85400         4.68700        23.43200
H           8.04300         3.70700        23.48600
C           8.06000         6.71700        24.85700
O           8.73300         7.05600        26.07800
C           8.18300         8.21500        26.72000
O           8.93700         8.54000        27.89700
C           8.37500         8.26500        29.18800
C           8.85800         6.93600        29.74600
O           8.47100         5.85900        28.88000
H           9.04700         5.90800        28.06400
C           8.16300         6.62200        31.06100
O           8.63600         5.33700        31.49000
H           8.31600         5.17900        32.42400
C           7.83100        10.65100        29.84400
O           8.02400        11.42100        28.64800
H           7.86700        12.40100        28.77300
C           8.57000         9.37400        30.20900
O           8.16800         8.98500        31.53100
C           8.66400         7.71800        31.98800
O           7.78900         7.61500        33.12100

