# freq=raman b3lyp/6-31+g(d,p) geom=connectivity

500 10000.com

0 1
O           8.64900         7.11800        12.40500
C           9.36600         7.24600        13.64100
C           9.41700         8.62900        14.26900
O          10.20400         9.52000        13.46600
H          10.13800         9.31500        12.48900
C           9.98500         8.75200        15.67400
O          10.15800        10.08600        16.17400
H          10.66700        10.62800        15.50500
C           9.16100         4.78000        14.22400
O           8.54200         3.61200        14.78200
H           8.67400         2.78500        14.23500
C           8.93200         6.21500        14.67100
O           9.19900         6.46900        16.05800
C           9.07000         7.83700        16.47200
O           9.75500         7.67000        17.72200
C           9.02600         7.47700        18.94300
C           8.65600         6.02400        19.19100
O           7.81500         5.36700        18.23200
H           8.16300         5.69600        17.35400
C           8.08600         5.75300        20.57400
O           7.98800         4.32900        20.72200
H           7.55000         4.03700        19.87100
C          10.04900         9.60900        20.06000
O          10.68900        10.34600        21.11100
H          10.46900        11.32200        21.12600
C           9.78800         8.11200        20.09500
O           9.03800         7.83200        21.28600
C           8.97900         6.43300        21.60000
O           8.42000         6.31100        22.91600

