# freq=raman b3lyp/6-31+g(d,p) geom=connectivity

500 5000.com

0 1
O           8.97500         6.96100        12.08000
C           9.41700         7.18200        13.42700
C           8.91900         8.48700        14.02800
O           9.08700         9.59500        13.13200
H           8.72500         9.16500        12.30500
C           9.76600         8.83400        15.24100
O           9.94200        10.18100        15.70500
H          10.36500        10.76300        15.01100
C           9.32800         4.70300        14.15800
O           8.65700         3.61100        14.80400
H           8.81900         2.72600        14.36700
C           9.08300         6.16300        14.50400
O           9.42000         6.41800        15.87500
C           9.21100         7.79900        16.20500
O           9.82900         7.99500        17.48500
C           8.99300         7.73800        18.62300
C           8.86400         6.25300        18.92300
O           8.01200         5.54200        18.01300
H           8.45900         5.51600        17.11900
C           8.42400         6.01200        20.35700
O           8.24100         4.60600        20.57700
H           7.74700         4.30900        19.75900
C           9.29100         9.93500        19.58500
O           9.52000        10.81200        20.69800
H           9.16500        11.74000        20.58200
C           9.70200         8.48000        19.74500
O           9.33800         8.10000        21.08000
C           9.31300         6.69700        21.38200
O           8.77300         6.75400        22.71000

