# freq=raman b3lyp/6-31+g(d,p) geom=connectivity

500 6000.com

0 1
O           8.84100         7.21700        12.09200
C           9.44900         7.35600        13.38500
C           9.39200         8.80100        13.85100
O          10.35300         9.54200        13.08600
H          10.44000         9.17100        12.16100
C           9.71900         9.05000        15.31500
O           9.24000        10.35400        15.67400
H          10.00800        10.99600        15.66800
C           8.95000         4.96800        14.15800
O           8.49800         4.00100        15.11800
H           8.56900         3.16200        14.57700
C           8.74900         6.45600        14.39100
O           9.11100         6.76600        15.74500
C           9.04400         8.09400        16.28500
O           9.73100         7.93000        17.53400
C           9.18000         7.56800        18.80800
C           8.90900         6.12200        19.18900
O           8.07200         5.55400        18.17100
H           8.46800         5.73000        17.26900
C           8.21900         5.97300        20.53500
O           7.61100         4.69200        20.75400
H           7.06600         4.74000        19.91700
C          10.39200         9.55600        19.57500
O           9.46100        10.45200        20.19900
H           9.72600        11.38500        19.95600
C          10.03000         8.12500        19.93800
O           9.56300         7.84500        21.26600
C           9.21200         6.48600        21.56600
O           8.70000         6.65900        22.89500

