# freq=raman b3lyp/6-31+g(2d,p) geom=connectivity
500 8000.com
500 8000.com
C           9.04000         8.00800         2.67400
0 1
O           9.75900        10.13400         2.45400
H           9.23800        10.18100         1.60200
C           9.67700         9.45600         4.73900
O           9.34800        10.66400         5.43900
H           9.48800        11.49900         4.90700
C           8.53800         5.48700         3.25800
O           8.28000         4.51900         4.28500
H           8.17700         3.68600         3.74200
C           8.62900         6.94500         3.67900
O           9.34400         7.06500         4.91700
C           9.22600         8.30700         5.62700
O          10.10100         8.05700         6.73600
C           9.40700         7.87300         7.97800
C           9.14300         6.46000         8.47100
O           8.67600         5.49600         7.51600
H           9.18500         5.54500         6.65700
C           8.48700         6.34300         9.83800
O           8.53700         4.97000        10.25300
H           7.58800         4.67200        10.15100
C          10.40300         9.92300         8.89600
O           9.46200        10.87400         8.37600
H           9.36500        10.81800         7.38200
C          10.12600         8.45600         9.18400
O           9.44300         8.44600        10.44600
C           9.37600         7.06600        10.83600
O           8.68000         6.96700        12.08600
C           9.36500         7.30800        13.30000
C           8.94300         8.62500        13.93100
O           9.39300         9.66100        13.04600
H           9.01200         9.43400        12.15000
C           9.63200         8.94200        15.24800
O           9.04100        10.05400        15.93700
H           9.57400        10.87500        15.73200
C           9.21800         4.78900        13.93800
O           8.79900         3.71400        14.79200
H           9.02900         2.80300        14.44900
C           8.98900         6.24300        14.31600
O           9.64500         6.47600        15.57100
C           9.38800         7.75600        16.16700
O          10.19300         7.83100        17.35200
C           9.51000         7.27900        18.48700
C           9.55800         5.76800        18.64300
O           8.75600         5.13600        17.63400
H           9.16200         5.44500        16.77400
C           8.93800         5.48400        20.00100
O           8.93900         4.12600        20.46400
H           8.19400         3.64000        20.00600
C          10.03600         9.53500        19.55900
O          10.70600        10.15900        20.66300
H          10.64700        11.15700        20.62500
C          10.15600         8.02200        19.64500
O           9.69500         7.61200        20.94000
C           9.68000         6.18900        21.12500
O           8.81900         6.03300        22.26300
C           9.48900         6.38500        23.48200
C           8.91300         7.66300        24.07200
O           9.14800         8.77100        23.19100
H           9.02900         8.40800        22.26700
C           9.44900         8.07100        25.43400
O           8.99300         9.26400        26.08800
H           9.27100        10.01900        25.49300
C           9.52700         3.79500        24.17800
O           9.09700         2.80200        25.12000
H           9.01800         1.90500        24.68600
C           9.32600         5.26700        24.50000
O           9.92800         5.63700        25.74800
C           9.39600         6.83900        26.32300
O          10.20700         6.86900        27.50600
C           9.55700         6.49600        28.73000
C           9.53200         4.99800        28.98100
O           8.99000         4.14000        27.96600
H           9.28200         4.21600        27.01300
C           8.74900         4.71100        30.25200
O           8.89800         3.28600        30.33100
H           8.80400         3.08200        29.35600
C          10.31400         8.52900        29.79500
O          10.98200         9.39000        30.72900
H          10.66100        10.31400        30.52200
C          10.30100         7.01700        29.94900
O           9.78900         6.68400        31.24700
C           9.49600         5.29300        31.44200
O           8.80700         5.01900        32.67000
C           9.36500         5.40200        33.93500
C           8.99200         6.72300        34.58800
O           9.35300         7.81800        33.73400
H           9.29800         7.40900        32.82300
C           9.56300         7.03900        35.96000
O           8.87200         8.20800        36.42400
H           8.96200         9.07400        35.93200
C           9.38800         2.93500        34.58900
O           8.85100         1.99200        35.52800
H           9.36200         1.17000        35.27400
C           9.14600         4.36900        35.02900
O           9.83600         4.68300        36.24800
C           9.31500         5.85800        36.88500
O           9.99800         5.91200        38.14500
C           9.29500         5.68100        39.37500
C           9.25600         4.19600        39.69700
O           8.58400         3.52600        38.62000
H           9.06400         3.76400        37.77600
C           8.67200         3.84600        41.05500
O           9.04100         2.46100        40.97600
H           8.52100         2.23600        40.15200
C           9.81200         7.80700        40.27500
O          10.03300         8.79800        41.28900
H           9.91800         9.73600        40.96200
C           9.25300         9.45300        -1.10000
O           8.49900         9.14100         0.08100
C           8.87100         7.77600         0.32300
O           8.15500         7.78000         1.56700
C           4.41300         4.09700         0.62500
C           4.66500         2.72400         1.22600
O           4.38100         1.85300         0.12100
H           4.65200         2.34400        -0.70700
C           4.01300         2.30000         2.53200
O           4.57200         1.06900         3.01500
H           4.38800         0.36700         2.32800
C           4.74400         6.45000         1.46000
O           3.56300         7.21400         1.17400
H           3.18000         6.87000         0.31700
C           4.56100         4.99100         1.84500
O           3.82700         4.66900         3.03600
C           4.37000         3.42200         3.49300
O           3.65600         3.11200         4.69900
C           4.47200         3.50900         5.81100
C           3.83800         4.74900         6.42100
O           3.83500         5.80500         5.45000
H           3.67800         5.59300         4.48600
C           4.49000         5.08600         7.75300
O           3.77400         6.19400         8.31800
H           3.94700         7.03400         7.80500
C           4.96800         1.16100         6.37100
O           5.08100        -0.07100         7.09900
H           4.94900        -0.80900         6.43700
C           4.35500         2.44900         6.89500
O           5.01700         2.79800         8.11900
C           4.45200         3.95000         8.76200
O           5.19300         4.04700         9.98700
C           4.55100         3.56400        11.17600
C           4.85900         2.09100        11.39000
O           4.27400         1.21900        10.41200
H           4.48700         1.42600         9.45700
C           4.44600         1.60300        12.76900
O           4.87700         0.28500        13.13800
H           4.55100        -0.27300        12.37500
C           4.67800         5.89200        12.07800
O           4.98900         6.85400        13.09600
H           4.40600         7.66600        13.06700
C           5.00200         4.43000        12.34100
O           4.27500         3.98600        13.49600
C           4.64000         2.64600        13.85700
O           4.03200         2.50000        15.14900
C           4.85500         2.91300        16.24900
C           4.55900         4.27300        16.85900
O           4.94900         5.28300        15.91700
H           4.40000         5.21200        15.08400
C           5.28600         4.50700        18.17300
O           4.70600         5.66300        18.79400
H           4.96100         6.47500        18.27000
C           9.50800        33.64600        16.60600
O           9.38900        32.51700        17.48400
H           9.26800        31.71300        16.90200
C           5.03800         1.75200        17.21400
O           5.68300         2.18900        18.41900
C           4.92500         3.27000        18.98000
O           5.68400         3.23700        20.19800
C           4.97200         2.84700        21.38100
C           5.53000         1.49000        21.77800
O           5.10800         0.52900        20.80000
H           5.49100         0.82900        19.92600
C           4.98000         1.03000        23.11900
O           5.86400        -0.09600        23.22300
H           5.94700        -0.48900        22.30700
C           5.21700         5.17400        22.35400
O           5.65700         6.05300        23.39900
H           5.26400         6.96800        23.30300
C           5.42100         3.68300        22.56800
O           4.81000         3.42200        23.84000
C           5.23300         2.09200        24.17600
O           4.59500         1.66500        25.38800
C           5.16200         1.94100        26.67700
C           4.48200         3.15900        27.28100
O           4.54400         4.31200        26.42800
H           4.39700         4.12500        25.45700
C           4.96300         3.38100        28.70600
O           4.29500         4.47200        29.35700
H           4.51400         5.42000        29.12800
C           9.12300        32.66000        26.95900
O           8.76300        31.48200        27.69600
H           8.50000        30.74700        27.07100
C           4.80600         0.79600        27.61000
O           5.33200         0.91200        28.94000
C           4.68600         2.08600        29.45300
O           5.36100         2.24300        30.70900
C           4.55400         1.89800        31.84500
C           8.77100        33.67000        32.33200
O           8.50300        32.63700        31.37200
H           8.94300        32.84900        30.50000
C           8.21300        33.18700        33.66100
O           8.64200        31.82300        33.78800
H           8.33700        31.48000        32.89900
C           4.62100         4.14900        32.65000
O           3.78400         5.05400        33.38400
H           4.22400         5.95200        33.36900
C           5.06100         2.73800        33.00600
O           4.63000         2.39600        34.33100
C           4.96900         1.01700        34.53400
O           4.64500         0.56900        35.85900
C           5.26200         1.02300        37.07200
C           4.53700         2.25500        37.58800
O           4.63700         3.51800        36.91300
H           4.46000         3.28900        35.95600
C           5.02100         2.58100        38.99100
O           4.32300         3.66300        39.62600
H           4.46300         4.52500        39.13800
C           9.26400        31.77500        37.47100
O           9.55300        30.61700        38.26800
H           9.61600        29.82000        37.66600
C           4.94400        -0.07000        38.08000
O           5.49700         0.07100        39.39700
C           5.01200         1.33800        39.86500
O           5.67200         1.43400        41.13600
C          10.40800        16.05000         1.96200
C          10.43500        17.44400         2.56600
O          11.17300        18.20800         1.60200
H          10.85000        18.12700         0.65900
C          11.11400        17.52300         3.92400
O          10.80200        18.86000         4.34100
H          11.05000        19.24500         3.45200
C          10.07900        13.77200         2.63600
O           9.79100        12.69100         3.53400
H          10.34400        11.91700         3.22600
C           9.81300        15.20300         3.07500
O          10.45300        15.20700         4.36000
C          10.49400        16.53600         4.89900
O          11.44800        16.23400         5.92800
C          10.86500        16.20100         7.23800
C          10.81300        14.72500         7.60000
O          10.80900        13.72200         6.57400
H          10.37700        14.07000         5.74200
C          10.24800        14.35200         8.96100
O          10.59000        13.03200         9.40700
H           9.94600        12.55400         8.80900
C          11.88500        18.18700         7.98100
O          12.65400        18.86300         8.98700
H          13.62200        18.62300         9.06000
C          11.65000        16.75100         8.41800
O          10.79100        16.63800         9.56200
C          10.78700        15.28300        10.03400
O          10.04400        15.45700        11.25000
C          10.88700        15.37200        12.40800
C          11.15900        16.75600        12.97400
O          12.00100        17.51700        12.09500
H          11.59500        17.21700        11.23200
C          11.36900        16.78600        14.47900
O          11.19000        18.12000        14.97600
H          11.76600        18.75900        14.46600
C           9.89700        13.01300        12.89800
O           8.87200        12.21900        13.51200
H           9.22600        11.30300        13.32400
C          10.17000        14.43300        13.36500
O          10.77300        14.41000        14.66700
C          10.69000        15.69700        15.29500
O          11.43900        15.63100        16.51700
C          10.68100        15.49700        17.72800
C          10.50300        14.03300        18.09600
O           9.87700        13.18300        17.12400
H          10.25800        13.54400        16.27200
C           9.99300        13.85400        19.51700
O           9.91500        12.49300        19.96600
H           9.07300        12.21100        19.50800
C          11.56100        17.71900        18.29100
O          12.54100        18.57900        18.89100
H          13.38200        18.05000        19.00300
C          11.52600        16.26400        18.73200
O          10.96600        16.08200        20.04000
C          10.90300        14.69400        20.39800
O          10.17900        14.85500        21.62600
C          10.90900        14.62200        22.83900
C          10.90900        15.98100        23.52000
O          11.78600        16.95400        22.93700
H          11.86900        16.81500        21.95000
C          11.34100        16.03800        24.97600
O          10.86100        17.33600        25.35700
H          11.27300        18.08800        24.84400
C          10.23200        12.22400        23.42700
O           9.88900        11.13800        24.30000
H          10.02500        10.30400        23.76700
C          10.18900        13.69600        23.80600
O          10.84900        13.75300        25.08000
C          10.62800        14.97600        25.79800
O          11.31300        14.76800        27.04100
C          10.44500        14.63300        28.17600
C          10.08400        13.17000        28.37600
O           9.23800        12.59200        27.37100
H           9.71400        12.47100        26.50000
C           9.51100        12.88700        29.75500
O           9.61000        11.47300        29.98200
H           8.81700        11.03000        29.56300
C          11.83500        16.58900        29.12600
O          12.56500        17.20200        30.19900
H          13.50100        16.85100        30.19900
C          11.29800        15.17900        29.30900
O          10.66100        14.84100        30.54900
C          10.43800        13.45000        30.82000
O           9.74000        13.55800        32.07000
C          10.67300        13.60600        33.16000
C          10.68700        14.94400        33.87900
O          11.60400        15.76000        33.13600
H          11.34100        15.68800        32.17400
C          11.30800        14.88900        35.26600
O          11.19700        16.21000        35.81500
H          11.60200        16.78400        35.10300
C          10.41100        11.19400        33.80300
O           9.66300        10.23800        34.57000
H           9.69100         9.35600        34.10100
C          10.18800        12.63700        34.22600
O          10.91700        12.63000        35.46200
C          10.63000        13.85600        36.15000
O          11.33700        13.71400        37.39100
C          10.47800        13.92300        38.52200
C           9.78900        12.63900        38.95600
O           8.59500        12.62500        38.15900
H           8.94500        12.36000        37.26100
C           9.32800        12.46200        40.39400
O           9.08400        11.06700        40.62400
H           8.25700        10.92400        40.08100
C          11.71600        15.97500        39.14100
O          12.30200        16.68300        40.24300
H          13.21800        16.28800        40.31600
C          11.32300        14.58100        39.60100
O          10.88600        14.41200        40.95800
C          10.49000        13.05000        41.17700
O          10.14400        13.07900        42.57000
C           4.99100        12.32300         0.03100
C           5.98600         7.81800        42.27300
O           5.76700         6.81800        41.26700
H           6.03300         7.36800        40.47600
C           4.69500        10.69800         1.90500
O           4.94500         9.47300         2.60900
H           4.46500         8.78300         2.06800
C           5.32500        14.78300         0.85000
O           5.95600        15.72200         1.73300
H           6.18700        16.58700         1.28800
C           5.24400        13.29900         1.16900
O           4.44800        13.15000         2.35400
C           5.00500        11.89900         2.78400
O           4.72800        11.77700         4.18700
C           5.62600        11.64900         5.29900
C           5.90000        13.00500         5.92900
O           6.69300        13.79400         5.03000
H           6.26000        13.96700         4.14600
C           6.52900        12.85400         7.30400
O           6.88600        14.19600         7.66900
H           7.21000        14.58200         6.80600
C           5.06200         9.25000         5.91200
O           4.19400         8.26800         6.49500
H           4.05400         7.51600         5.85100
C           5.01200        10.71200         6.32700
O           5.50300        10.73000         7.67500
C           5.64400        12.04300         8.23600
O           6.15800        11.99100         9.57500
C           5.11800        12.23100        10.53400
C           4.58000        10.82900        10.77000
O           3.46400        10.38700         9.98400
H           3.08900         9.62900        10.51800
C           4.09400        10.54300        12.18100
O           3.81100         9.21000        12.63000
H           2.93000         9.20000        13.10300
C           6.19600        14.24000        11.44800
O           6.84300        15.12400        12.37600
H           6.89900        16.10400        12.18500
C           5.95800        12.75800        11.68700
O           5.21700        12.57700        12.90200
C           4.98400        11.19800        13.22500
O           4.51900        11.27800        14.57900
C           5.44500        11.39800        15.66900
C           5.27200        12.78800        16.26000
O           5.39700        13.79900        15.25000
H           5.12600        13.41000        14.37000
C           6.09100        13.08000        17.50700
O           5.58000        14.26100        18.14200
H           5.55900        14.92800        17.39800
C           5.39400         8.98100        16.36900
O           5.49400         7.83700        17.23000
H           5.41700         6.97500        16.72800
C           5.22000        10.42400        16.81400
O           6.05200        10.75600        17.93500
C           5.63600        12.01300        18.48800
O           6.43700        12.04700        19.67900
C           5.79500        11.47000        20.82500
C           5.95900         9.99000        21.13200
O           5.63100         8.97500        20.17200
H           5.79600         9.23300        19.22000
C           5.02200         9.70000        22.29300
O           4.82800         8.27900        22.35100
H           5.08000         8.01100        21.42100
C           6.30400        13.70800        21.99700
O           6.87000        14.46300        23.07800
H           6.84000        15.41800        22.78600
C           6.39300        12.19100        22.02100
O           5.72600        11.84700        23.24400
C           5.63700        10.43300        23.47400
O           4.81900        10.30600        24.64600
C           5.60000        10.33600        25.84900
C           5.21000        11.65300        26.50100
O           5.62800        12.80700        25.75700
H           5.54900        12.59700        24.78200
C           5.86000        11.77000        27.87000
O           5.48900        12.94600        28.60300
H           5.66300        13.72700        28.00300
C           4.87000         7.88400        26.36400
O           4.07400         7.05400        27.22400
H           3.98200         6.08000        27.01700
C           5.10700         9.30400        26.85000
O           5.87300         9.35100        28.06300
C           5.52800        10.56800        28.74000
O           6.30000        10.74100        29.93800
C           5.75600        10.39400        31.21900
C           5.82700         8.93700        31.64500
O           5.30900         8.04400        30.64800
H           5.42700         8.41500        29.72700
C           4.94700         8.63100        32.84600
O           5.21800         7.23400        33.03600
H           5.20300         6.93500        32.08200
C           5.88200        12.66100        32.29800
O           6.74200        13.53500        33.04300
H           6.56300        14.47400        32.74900
C           6.14800        11.17400        32.46400
O           5.40700        10.74200        33.61500
C           5.51800         9.37600        34.04100
O           4.65400         9.19900        35.17200
C           5.35500         9.34700        36.41600
C           5.24900        10.72600        37.04700
O           5.61000        11.81700        36.18700
H           4.77800        12.06200        35.68900
C           5.83200        10.81600        38.44700
O           5.91200        12.05600        39.16600
H           6.61400        12.56900        38.67300
C           5.00200         6.85800        36.90000
O           4.71700         5.80600        37.83300
H           4.77400         4.94100        37.33500
C           4.89800         8.28800        37.40600
O           5.55300         8.46400        38.67000
C           5.16100         9.71600        39.25300
O           5.99000         9.59000        40.41700
C          12.66300        24.53700         2.30800
C          12.56500        25.92900         2.91100
O          13.57700        26.62400         2.16800
H          13.12600        26.69400         1.27800
C          12.78000        26.10100         4.40600
O          12.13100        27.35100         4.68500
H          12.75200        28.10300         4.46600
C          11.98500        22.22600         2.70700
O          11.13900        21.30000         3.40200
H          10.26200        21.65500         3.72600
C          12.06500        23.60200         3.34700
O          12.62900        23.65200         4.66600
C          12.27300        24.92500         5.22500
O          12.98300        24.85000         6.46900
C          12.43200        24.40700         7.71800
C          12.74000        22.93000         7.89900
O          11.90500        22.13200         7.04800
H          12.08100        22.34200         6.08700
C          12.49100        22.66500         9.37500
O          13.33300        21.50300         9.42500
H          12.90200        20.71200         8.99000
C          12.84300        26.76400         8.55200
O          13.41500        27.78700         9.38000
H          12.91500        28.63800         9.21800
C          13.14200        25.28500         8.73600
O          12.69100        24.95000        10.05700
C          13.17300        23.62700        10.33500
O          12.52000        23.60000        11.61200
C          13.36500        23.62800        12.77100
C          13.51300        25.05400        13.27500
O          14.38800        25.80000        12.41700
H          13.76000        26.18900        11.74300
C          14.11400        24.94800        14.66800
O          14.42100        26.18300        15.33100
H          15.11500        26.59600        14.74200
C          12.47700        21.40400        13.24900
O          12.10800        20.35900        14.16000
H          11.10800        20.35000        14.12800
C          12.55900        22.82500        13.78000
O          13.23400        22.65500        15.03500
C          13.39800        23.97000        15.58500
O          14.05600        23.92500        16.85900
C          13.17500        23.80300        17.98500
C          13.06600        22.33800        18.37800
O          12.23500        21.61000        17.46300
H          12.62800        21.64000        16.54300
C          12.37500        21.98500        19.68500
O          12.96200        20.76500        20.16100
H          12.64100        19.98400        19.62600
C          13.90400        25.94200        18.81000
O          12.81200        26.69100        18.25600
H          12.74200        27.68800        18.29100
C          13.72600        24.49000        19.22300
O          12.78800        24.28300        20.28900
C          12.92600        22.92900        20.74200
O          12.09800        22.88400        21.91300
C          12.95900        22.98400        23.05700
C          13.01800        24.37800        23.66100
O          13.40500        25.41700        22.75000
H          12.70100        25.36200        22.04200
C          13.88800        24.33600        24.90600
O          13.83700        25.59900        25.58500
H          13.68800        26.36300        24.95700
C          12.01400        20.78300        23.65200
O          11.56800        19.87700        24.67100
H          10.62700        20.04000        24.96800
C          12.37600        22.15700        24.19200
O          13.36500        22.09500        25.22900
C          13.22200        23.37000        25.87200
O          13.92200        23.13400        27.10200
C          13.28400        23.03500        28.38400
C          13.21700        21.54300        28.66800
O          12.67100        20.72300        27.62500
H          12.92200        21.09000        26.72900
C          12.65500        21.28000        30.05500
O          13.08400        20.05000        30.65700
H          12.79000        19.32100        30.03900
C          13.72900        25.38500        29.01400
O          14.19500        26.34000        29.97700
H          13.95600        27.22500        29.57700
C          13.93400        23.93500        29.42200
O          13.26500        23.62700        30.65400
C          13.09300        22.27900        31.11400
O          12.37400        22.51800        32.33300
C          13.07100        22.40200        33.58200
C          13.43700        23.75500        34.16800
O          14.11700        24.74500        33.38300
H          13.74300        24.80800        32.45700
C          14.22500        23.53500        35.44900
O          14.64700        24.80000        35.98000
H          15.16600        25.24800        35.25200
C          12.26700        20.09300        34.17400
O          11.78300        19.20700        35.19400
H          10.81500        19.33900        35.40400
C          12.27400        21.56100        34.56700
O          12.87400        21.51900        35.87000
C          13.38300        22.73700        36.43100
O          14.07000        22.38900        37.64200
C          13.26700        22.32500        38.83000
C          13.19400        20.85200        39.19900
O          12.51100        20.04200        38.23100
H          12.71700        20.52400        37.37900
C          12.52000        20.63100        40.54400
O          12.84400        19.30600        40.98900
H          12.39100        18.54900        40.51900
C          14.14600        24.53900        39.73700
O          14.95300        25.30000        40.64700
H          14.95900        26.25500        40.35000
C          13.87100        23.06900        40.01000
O          13.09700        22.97100        41.21400
C          13.07700        21.58600        41.58800
O          12.44600        21.44300        42.86900
C           7.92800        17.67900        40.99700
C           7.32500        16.36100        41.45500
O           6.46500        15.71400        40.50500
H           6.87100        15.84700        39.60100
C           5.75800        19.59600         0.93300
O           5.15200        18.33700         1.26000
H           4.23300        18.26900         0.87000
C           8.18600        22.91700         0.01100
O           8.90400        23.88500         0.79000
H           9.06900        24.76700         0.34900
C           8.12700        21.44300         0.37900
O           7.32700        21.30900         1.56300
C           6.82800        20.01400         1.92900
O           6.41100        20.12000         3.29800
C           7.24800        20.15100         4.46300
C           7.84400        21.44000         5.00600