# freq=raman b3lyp/6-31+g(d,p) geom=connectivity

500 9000.com

0 1
O           8.79600         6.81500        11.96500
C           9.26400         7.25400        13.24800
C           9.15300         8.68700        13.74300
O           9.76000         9.58100        12.79900
H           9.36500         9.37100        11.90400
C           9.37200         8.96700        15.22100
O           8.69000        10.15200        15.65600
H           8.88400        11.02700        15.21300
C           9.28000         4.92400        13.81100
O           8.65300         3.88000        14.57100
H           9.03100         3.02100        14.22500
C           8.81100         6.27700        14.32100
O           9.37800         6.54500        15.61100
C           8.96600         7.81800        16.13000
O           9.82300         7.59500        17.25900
C           9.19400         7.27600        18.50900
C           8.80200         5.82900        18.75800
O           7.96800         5.28700        17.72300
H           8.44400         5.51300        16.87300
C           8.18000         5.59800        20.12500
O           7.90300         4.19500        20.24400
H           7.29700         3.95300        19.48600
C           9.77500         9.30000        19.42000
O          10.19300        10.32600        20.33200
H          10.21000        11.17000        19.79600
C          10.01500         7.82000        19.66700
O           9.40400         7.60900        20.94800
C           9.07400         6.23200        21.17800
O           8.32400         6.32600        22.39800

