# freq=raman b3lyp/6-31+g(2d,p) geom=connectivity

320 5029/5029.com

0 1
C           8.16000         7.81100         3.14400
C           7.69200         9.15900         3.66900
O           8.22700        10.08300         2.71100
H           7.85800         9.83700         1.81500
C           8.11800         9.45500         5.09800
O           7.59000        10.66800         5.65400
H           8.08800        10.97100         6.46700
C           8.47500         5.41800         3.93700
O           7.93100         4.67200         2.83900
H           8.10400         3.69100         2.93300
C           7.83100         6.76900         4.20000
O           8.30400         7.12300         5.50800
C           7.71000         8.32200         6.02700
O           8.53600         8.44400         7.19400
C           7.98600         8.13800         8.48300
C           8.65500         6.90400         9.06500
O           8.35700         5.80200         8.19400
H           8.59100         6.17900         7.29800
C           8.03100         6.48100        10.38600
O           8.60400         5.31700        10.99800
H           8.11300         5.27700        11.86800
C           7.78200        10.62700         9.12300
O           8.58000        11.26300         8.11300
H           8.56800        12.25900         8.19300
C           8.32800         9.25000         9.46100
O           7.68100         8.87400        10.68600
C           8.23100         7.69100        11.28400
O           7.43600         7.55600        12.47100
C           8.12100         7.92100        13.67800
C           7.61300         9.29100        14.09800
O           7.93900        10.31400        13.14600
H           7.82400         9.90600        12.24000
C           8.23000         9.62900        15.44600
O           7.67900        10.85000        15.95900
H           7.91700        11.06300        16.90600
C           8.31500         5.50400        14.51000
O           7.65400         4.85800        13.41200
H           7.63300         3.86300        13.51100
C           7.79500         6.90900        14.76400
O           8.40000         7.29600        16.00700
C           7.93500         8.56400        16.49000
O           8.78700         8.79800        17.62100
C           8.24400         8.40000        18.88800
C           8.84200         7.09800        19.39400
O           8.37000         6.04300        18.54300
H           8.43400         6.45500        17.63300
C           8.36100         6.80300        20.80600
O           8.95900         5.65300        21.42200
H           8.40400         5.25000        22.14900
C           7.76200        10.82600        19.66300
O           8.12500        11.52500        18.46400
H           8.26500        12.48700        18.70200
C           8.44600         9.49400        19.92400
O           8.03800         9.24000        21.27600
C           8.58600         7.99200        21.72500
O           7.84600         7.75800        22.93200
C           8.54600         8.08600        24.14100
C           8.10400         9.44100        24.66800
O           8.61500        10.42800        23.76000
H           8.22800        10.19600        22.86800
C           8.40900         9.84100        26.10300
O           7.71700        10.94000        26.71300
H           8.10600        11.21200        27.59300
C           8.38200         5.59500        25.00500
O           7.81900         4.93900        23.86000
H           7.84900         3.94800        23.98700
C           8.17100         7.08500        25.22100
O           8.80000         7.49100        26.44600
C           8.12100         8.63600        26.98400
O           8.73900         8.87600        28.25600
C           8.04100         8.47700        29.44500
C           8.58100         7.11000        29.83400
O           8.34200         6.03600        28.91400
H           8.47200         6.37700        27.98300
C           8.29400         6.63000        31.24700
O           9.01400         5.51100        31.78600
H           8.65700         5.16100        32.65200
C           8.15900        10.81400        30.28100
O           8.48200        11.67200        29.17700
H           9.03700        12.43700        29.50400
C           8.64000         9.38900        30.50300
O           8.28100         9.06200        31.85300
C           8.69400         7.73500        32.21100
O           7.88800         7.70900        33.39700
C           8.55200         8.00000        34.63600
C           8.09000         9.35700        35.14100
O           8.33100        10.40200        34.18800
H           8.08500         9.90400        33.35700
C           8.64300         9.68700        36.51800
O           7.87200        10.77800        37.04100
H           8.24100        11.06500        37.92500
C           8.68900         5.56800        35.58400
O           8.07100         4.90000        34.47400
H           8.26000         3.92000        34.42700
C           8.16300         6.98900        35.70300
O           8.92400         7.32700        36.87100
C           8.33400         8.51000        37.43000
O           8.99700         8.64100        38.69500
C           8.30700         8.30900        39.90900
C           8.80400         6.97100        40.43000
O           8.70800         5.96700        39.40800
H           9.26000         6.24100        38.62100
C           7.98900         6.51300        -0.43200
O           8.62700         5.40000         0.21100
H           8.28800         5.30400         1.14600
C           7.86100        10.63200        40.64400
O           8.50900        11.44800        39.65700
H           8.28200        12.41800        39.74300
C           8.53100         9.32500        -1.04500
O           7.79200         8.84700         0.08900
C           8.19700         7.58100         0.63000
O           7.51700         7.53000         1.89200
C           3.64800         4.25800         0.35300
C           4.00100         2.89300        42.99500
O           3.74300         1.91100        41.98200
H           4.20500         2.16600        41.13200
C           3.35300         2.53300         2.26100
O           3.60900         1.20100         2.72800
H           3.26400         1.05100         3.65500
C           3.94000         6.67600         1.19800
O           4.52200         7.39800         0.10300
H           4.26200         8.35600         0.22200
C           4.13800         5.19000         1.44900
O           3.43600         4.87200         2.66000
C           3.81300         3.61100         3.22900
O           3.00600         3.56500         4.41400
C           3.76900         3.92900         5.57400
C           3.35600         5.32500         6.01000
O           3.85800         6.13700         4.93800
H           3.51600         5.81000         4.05700
C           4.10000         5.67200         7.28900
O           3.69300         6.92000         7.86900
H           3.84400         6.97600         8.85600
C           3.81400         1.43800         6.30900
O           3.30400         0.65700         5.21900
H           3.66500        -0.26700         5.34700
C           3.44600         2.87900         6.62400
O           4.08800         3.25400         7.85100
C           3.78000         4.58200         8.29900
O           4.44700         4.69800         9.56400
C           3.74500         4.25900        10.73700
C           4.16800         2.87500        11.20200
O           3.84200         1.82100        10.28400
H           4.24700         2.16500         9.43700
C           3.64500         2.62100        12.60600
O           4.12200         1.36500        13.11100
H           3.59300         1.22300        13.94700
C           3.69000         6.66600        11.54900
O           4.05500         7.46000        10.41100
H           4.14400         8.39400        10.75700
C           4.07900         5.23000        11.85800
O           3.41000         4.85000        13.06900
C           4.01300         3.67700        13.63500
O           3.29600         3.55800        14.87200
C           4.04500         3.85400        16.05900
C           3.60500         5.23200        16.52700
O           3.86200         6.30200        15.60700
H           3.59600         5.88500        14.73700
C           4.21800         5.47500        17.89700
O           3.90200         6.76000        18.45300
H           4.36500         6.80500        19.33800
C           3.90200         1.33800        16.86600
O           3.35300         0.79900        15.65500
H           3.37600        -0.19700        15.74300
C           3.59900         2.81300        17.07300
O           4.21400         3.08700        18.34000
C           3.84200         4.36800        18.86900
O           4.50900         4.51200        20.13100
C           3.91500         4.10900        21.37400
C           4.08100         2.70000        21.92000
O           3.63400         1.81100        20.88600
H           4.20100         2.03500        20.09300
C           3.50000         2.47000        23.30500
O           3.77000         1.13800        23.76800
H           3.66100         1.05700        24.75900
C           4.16200         6.49300        22.10100
O           4.54900         7.44000        21.09500
H           4.30400         8.35500        21.41500
C           4.46300         5.04200        22.44100
O           3.83500         4.78100        23.70400
C           4.18400         3.48400        24.20700
O           3.37500         3.49400        25.39200
C           4.03200         3.67500        26.65500
C           3.86000         5.10400        27.14300
O           4.38300         6.03900        26.18800
H           4.16200         5.64900        25.29500
C           4.46000         5.38700        28.51100
O           4.31900         6.73100        28.99200
H           4.68000         6.69200        29.92400
C           4.10400         1.24000        27.48300
O           3.39300         0.41600        26.54700
H           3.62100        -0.53100        26.77400
C           3.73400         2.68600        27.77100
O           4.40200         3.11100        28.96800
C           3.96000         4.36100        29.51500
O           4.61800         4.40800        30.78900
C           3.89900         4.20000        32.01400
C           4.14700         2.76100        32.43900
O           3.57000         1.88700        31.45800
H           4.08800         1.80700        30.60700
C           3.50700         2.48200        33.78900
O           3.95200         1.19100        34.23100
H           3.68000         0.99500        35.17300
C           4.17500         6.54900        32.77500
O           4.76400         7.30600        31.70800
H           4.69900         8.28400        31.90500
C           4.40800         5.09000        33.13500
O           3.65500         4.80300        34.32200
C           3.96200         3.49500        34.82600
O           3.21800         3.41900        36.05100
C           3.96700         3.75700        37.22700
C           3.49900         5.12000        37.70900
O           3.83200         6.15200        36.76800
H           3.57000         5.81100        35.86500
C           4.14200         5.43300        39.05000
O           3.83900         6.78200        39.43600
H           4.03300         6.86400        40.41300
C           4.16500         1.32200        37.98300
O           3.87000         0.63700        36.75700
H           4.12900        -0.31600        36.91300
C           3.66500         2.72300        38.29900
O           4.22000         3.09100        39.57000
C           3.78100         4.36300        40.06800
O           4.52400         4.44700        41.29200
C           8.24900        15.80300         3.15500
C           7.71400        17.15100         3.61000
O           7.95900        18.18800         2.64900
H           7.61600        17.82000         1.78500
C           8.23800        17.61400         4.96000
O           7.50000        18.73400         5.46800
H           7.91300        19.07400         6.31300
C           8.37800        13.43800         4.09300
O           8.13400        12.78300         2.84000
H           8.37000        11.81400         2.91900
C           7.77700        14.82800         4.22100
O           8.39400        15.19000         5.46400
C           8.02400        16.48600         5.95700
O           8.89400        16.76200         7.06500
C           8.24200        16.51700         8.32000
C           8.74500        15.15400         8.76800
O           8.42400        14.09400         7.85600
H           8.50500        14.38300         6.90200
C           8.27700        14.78400        10.16600
O           8.85300        13.57500        10.68200
H           8.59400        13.42600        11.63700
C           8.04300        18.95800         9.01600
O           8.24400        19.69500         7.80200
H           8.06400        20.66600         7.96200
C           8.64700        17.59500         9.31200
O           8.10600        17.18300        10.57500
C           8.50800        15.92700        11.14100
O           7.65100        15.88100        12.29100
C           8.17100        16.04900        13.61700
C           7.61200        17.36400        14.13600
O           7.88700        18.38300        13.16300
H           7.69700        17.93300        12.29000
C           8.05900        17.74000        15.54000
O           7.36400        18.92700        15.94800
H           7.73900        19.08900        16.86000
C           8.29600        13.67900        14.44100
O           7.85200        13.02600        13.24300
H           7.78000        12.04800        13.44000
C           7.64400        15.04000        14.62500
O           7.93900        15.39800        15.98300
C           7.68500        16.68400        16.56700
O           8.61700        16.81000        17.65100
C           8.22700        16.43100        18.97900
C           8.83700        15.18800        19.60600
O           8.78300        14.10600        18.66500
H           9.34000        14.51800        17.94400
C           8.29100        14.87900        20.99100
O           9.12500        13.78200        21.38900
H           8.75900        13.42200        22.24700
C           7.92200        19.02500        19.53300
O           8.43200        19.65700        18.35000
H           8.40500        20.65400        18.41800
C           8.38700        17.62600        19.90400
O           7.73900        17.32600        21.14900
C           8.33200        16.18000        21.77600
O           7.68100        15.97000        23.03700
C           8.41700        16.26000        24.23500
C           7.97200        17.63200        24.71500
O           8.51300        18.56900        23.77200
H           8.31200        18.17300        22.87600
C           8.39900        18.00400        26.12500
O           7.68900        19.11200        26.69800
H           8.10200        19.35300        27.57600
C           8.53900        13.79200        25.11300
O           8.10200        13.14800        23.90700
H           8.36400        12.19200        24.04000
C           8.11100        15.23600        25.31500
O           8.62100        15.57200        26.61400
C           8.21000        16.85600        27.10400
O           8.97500        17.11600        28.29000
C           8.39800        16.72900        29.54600
C           9.06200        15.46100        30.05700
O           9.09400        14.41400        29.07600
H           9.24000        14.85400        28.19000
C           8.50600        15.10700        31.42700
O           9.07900        13.88100        31.90300
H           8.50000        13.65000        32.68500
C           8.24200        19.24800        30.24000
O           8.74100        19.86700        29.04600
H           8.56400        20.84600        29.14500
C           8.72200        17.83600        30.53700
O           8.03300        17.52700        31.75700
C           8.59900        16.33400        32.31800
O           7.83600        15.86000        33.43700
C           8.32300        16.22000        34.73800
C           7.61600        17.48200        35.20600
O           7.62800        18.57500        34.27700
H           7.60900        18.23900        33.33500
C           8.14700        17.89800        36.56800
O           7.65100        19.11200        37.15000
H           8.04900        19.31000        38.04600
C           8.59500        13.82000        35.46200
O           8.16300        13.06400        34.32100
H           7.96800        12.09100        34.44700
C           8.02700        15.18600        35.81200
O           8.65400        15.53400        37.05400
C           8.06000        16.74200        37.55100
O           8.91100        17.06600        38.66000
C           8.46500        16.55500        39.92400
C           8.99300        15.19900        40.36300
O           8.71900        14.16200        39.41000
H           8.90900        14.44700        38.47100
C           8.46600        14.75300        -0.34500
O           9.32000        13.68100         0.07900
H           9.03200        13.35000         0.97800
C           8.25500        18.96700        40.77900
O           8.63000        19.76800        39.64900
H           8.46700        20.73900        39.82000
C           8.59700        17.52300        -0.97200
O           7.86000        17.08500         0.17800
C           8.52200        15.90200         0.64900
O           7.77100        15.56200         1.82300
C           4.07700        12.34800         0.21900
C           4.26700        10.93000        42.80500
O           3.80700         9.97100        41.84200
H           3.95500        10.36500        40.93500
C           3.62200        10.72900         2.10600
O           3.45400         9.41000         2.64400
H           3.45400         9.45400         3.64300
C           4.08700        14.72600         1.22300
O           4.23300        15.39400        -0.03900
H           4.07400        16.37200         0.09800
C           4.59100        13.29400         1.29200
O           4.12500        13.04100         2.62500
C           4.32300        11.68600         3.05600
O           3.59300        11.64100         4.29000
C           4.32200        11.95500         5.48600
C           3.79000        13.29600         5.96600
O           4.06800        14.38800         5.07800
H           4.17300        13.94500         4.18800
C           4.28900        13.68900         7.34700
O           3.78000        14.93700         7.83900
H           4.04800        14.93700         8.80300
C           4.18100         9.58900         6.45100
O           3.94300         9.05800         5.14000
H           3.72400         8.10900         5.36600
C           3.81600        11.05600         6.60200
O           4.32500        11.35000         7.91200
C           3.89700        12.63900         8.37400
O           4.73200        12.82700         9.52600
C           4.01100        12.61500        10.74800
C           4.13000        11.18700        11.25500
O           3.76000        10.15200        10.33200
H           4.07000        10.48200         9.44100
C           3.38200        11.01900        12.56800
O           3.72900         9.75400        13.15000
H           3.32100         9.54600        14.03900
C           3.94000        15.09800        11.35700
O           4.67500        15.70900        10.28700
H           4.42000        16.67500        10.32700
C           4.36300        13.69500        11.75800
O           3.63200        13.43200        12.96500
C           3.82800        12.12100        13.51500
O           3.23800        11.89100        14.80300
C           3.95800        12.03700        16.03500
C           3.58000        13.37900        16.64100
O           3.42400        14.38100        15.62700
H           3.23600        13.82500        14.81800
C           4.43000        13.65000        17.87200
O           4.13300        14.94700        18.40900
H           4.46400        14.94200        19.35200
C           3.84600         9.64000        16.67200
O           3.28600         9.01700        15.50800
H           3.50400         8.04100        15.49600
C           3.52600        11.05800        17.11500
O           4.20000        11.28200        18.36200
C           4.09500        12.60000        18.91900
O           4.80700        12.65400        20.16400
C           4.00700        12.42000        21.33300
C           4.37600        10.99700        21.71800
O           3.90500        10.06600        20.73200
H           4.13100        10.49000        19.85500
C           3.74600        10.56000        23.03000
O           4.27000         9.28800        23.43800
H           3.78200         9.11500        24.29400
C           4.00700        14.84700        22.14400
O           4.52500        15.42700        20.93900
H           4.22700        16.38100        20.89200
C           4.40200        13.40500        22.42100
O           3.71800        12.94600        23.59600
C           4.02700        11.62900        24.07400
O           3.33200        11.50000        25.32300
C           4.04900        11.87000        26.50900
C           3.68900        13.25000        27.03500
O           4.15800        14.30800        26.18600
H           4.05700        13.99200        25.24200
C           4.30000        13.59600        28.38400
O           3.73200        14.82500        28.85800
H           4.22600        15.10800        29.68000
C           4.15800         9.42000        27.20400
O           3.55900         8.67600        26.13300
H           3.99100         7.77700        26.21400
C           3.79700        10.84200        27.60100
O           4.54100        11.21200        28.77100
C           4.07900        12.44200        29.34800
O           4.86100        12.60200        30.54100
C           4.18400        12.38100        31.78600
C           4.61600        11.03200        32.33600
O           4.27400         9.94200        31.46700
H           4.23100        10.14200        30.48800
C           4.03800        10.75200        33.71400
O           4.54100         9.53500        34.28400
H           4.28100         9.23400        35.20200
C           4.22500        14.83900        32.46700
O           4.64900        15.64200        31.35700
H           4.28400        16.56700        31.46300
C           4.55400        13.40400        32.84800
O           3.93400        13.13900        34.11400
C           4.33100        11.88400        34.68600
O           3.56100        11.77400        35.89100
C           4.33000        11.92700        37.09300
C           3.99800        13.32400        37.59100
O           4.40900        14.24900        36.57400
H           3.98600        13.88900        35.74300
C           4.52200        13.61900        38.98700
O           4.23800        14.97000        39.37800
H           4.24800        14.87000        40.37300
C           4.20400         9.51200        37.91100
O           3.85800         8.78800        36.72200
H           3.92900         7.81700        36.95400
C           3.74900        10.95000        38.10200
O           4.16600        11.24800        39.44200
C           3.87900        12.58000        39.89200
O           4.73300        12.66000        41.04200
C           8.01400        24.42100         3.23300
C           7.32800        25.65400         3.79900
O           7.18800        26.62500         2.75200
H           7.19500        26.10300         1.89900
C           8.09800        26.06800         5.04200
O           7.47300        27.25700         5.54800
H           7.90200        27.39700         6.44000
C           8.37200        21.93400         3.84100
O           7.87900        21.09500         2.78600
H           8.10300        20.18800         3.14400
C           7.77800        23.28200         4.21200
O           8.47600        23.63200         5.41600
C           8.05600        24.87900         5.98900
O           8.78800        25.01900         7.21500
C           8.15200        24.63800         8.44300
C           8.61400        23.25500         8.87000
O           8.05300        22.31900         7.93700
H           8.10800        22.60100         6.98000
C           8.09100        22.85100        10.23800
O           8.76200        21.67200        10.70600
H           8.37400        21.35300        11.57000
C           7.71800        27.03500         9.22300
O           8.29800        27.79900         8.15500
H           8.14500        28.78600         8.19800
C           8.40300        25.70600         9.49600
O           7.80000        25.31400        10.73800
C           8.24700        24.02700        11.18800
O           7.48700        23.77600        12.37900
C           8.06700        24.22100        13.61400
C           7.47700        25.57600        13.96700
O           7.55200        26.67800        13.05100
H           7.36200        26.31000        12.14100
C           7.89200        25.94300        15.38200
O           7.08000        26.96600        15.97900
H           7.44500        27.20900        16.87700
C           8.15800        21.79500        14.24700
O           8.04000        21.06900        13.01500
H           8.19500        20.10400        13.22700
C           7.66200        23.17700        14.64200
O           8.22000        23.50600        15.92200
C           7.74600        24.78800        16.35900
O           8.45500        25.16600        17.54900
C           7.80800        24.75100        18.76000
C           8.30500        23.37800        19.18400
O           8.06500        22.30700        18.25900
H           8.19500        22.69900        17.34900
C           7.83300        23.09100        20.60000
O           8.33800        21.85600        21.13000
H           8.05900        21.76500        22.08600
C           7.54600        27.12000        19.59700
O           7.87400        27.86900        18.41700
H           7.68500        28.81000        18.69600
C           8.12200        25.74000        19.87000
O           7.66400        25.38200        21.18200
C           8.25400        24.14600        21.61000
O           7.58000        23.78400        22.82400
C           7.95700        24.18600        24.14900
C           7.27600        25.49200        24.52400
O           7.55600        26.51900        23.56200
H           7.38900        26.27600        22.60700
C           7.74100        25.99100        25.88300
O           6.91800        27.07200        26.34400
H           7.33600        27.43300        27.17700
C           8.66000        21.91400        24.92000
O           8.35600        21.12100        23.76300
H           8.49300        20.13600        23.86200
C           7.78900        23.12300        25.22200
O           8.32800        23.67400        26.43300
C           7.75000        24.88900        26.93000
O           8.48900        25.18800        28.12300
C           7.92900        24.74700        29.36900
C           8.70700        23.57400        29.94100
O           8.91900        22.56200        28.94600
H           9.01300        23.03800        28.07200
C           8.11400        23.09200        31.25500
O           8.85300        21.97800        31.77700
H           8.24400        21.62400        32.48700
C           7.54100        27.28000        29.95200
O           7.91700        28.00500        28.77200
H           7.84700        28.97900        28.98500
C           8.07200        25.90900        30.33800
O           7.49100        25.46600        31.57300
C           8.05500        24.29600        32.18100
O           7.42300        23.93400        33.41800
C           8.05200        24.30900        34.65200
C           7.51300        25.64600        35.13400
O           7.84200        26.68700        34.20300
H           7.54600        26.28800        33.33500
C           7.97600        26.10000        36.50900
O           7.28600        27.24900        37.02100
H           7.58800        27.35000        37.97000
C           8.22800        21.96100        35.54100
O           7.80600        21.28300        34.34800
H           7.84300        20.30500        34.55300
C           7.69400        23.36300        35.78700
O           8.22500        23.72000        37.07200
C           7.82700        25.01000        37.55700
O           8.49200        25.35000        38.78300
C           7.93600        24.83300        40.00100
C           8.50400        23.51800        40.50900
O           8.20100        22.48500        39.56000
H           8.55800        22.69900        38.65100
C           8.02600        23.09900        -0.17200
O           8.90500        22.07300         0.31000
H           8.61200        21.73500         1.20400
C           7.33000        27.20300        40.86800
O           7.82100        27.90300        39.71600
H           7.45500        28.83000        39.80400
C           8.01900        25.87500        -0.95600
O           7.43600        25.32000         0.23200
C           8.24000        24.26500         0.78000
O           7.45800        24.05100         1.96300
C           3.71000        20.55900         0.21100
C           4.29100        19.19600        42.63500
O           4.03100        18.14400        41.69500
H           4.10800        18.50700        40.76700
C           3.83300        18.86800         1.98400
O           4.24300        17.60300         2.52400
H           3.79400        17.46100         3.40600
C           3.46900        22.94500         1.13900
O           4.07300        23.69000         0.07200
H           4.14200        24.66600         0.27800
C           4.05900        21.55400         1.30600
O           3.60200        21.19000         2.61600
C           4.13200        19.92400         3.03500
O           3.32700        19.69800         4.20100
C           3.94300        20.16100         5.41200