# freq=raman b3lyp/6-31+g(d,p) geom=connectivity

300 6000.com

0 1
O           7.66700         7.63500        22.55100
C           8.18300         7.84700        23.87300
C           7.84600         9.26400        24.30600
O           8.35700        10.22100        23.36700
H           8.27000         9.80900        22.46000
C           8.20400         9.59300        25.74600
O           7.47500        10.74800        26.18600
H           7.73100        11.20500        27.03800
C           7.79900         5.39800        24.78900
O           7.66700         4.82000        23.48300
H           7.88900         3.84800        23.55700
C           7.52800         6.89200        24.85800
O           7.73900         7.12000        26.25900
C           7.76000         8.48800        26.69100
O           8.60000         8.58400        27.85000
C           8.06900         8.30500        29.15300
C           8.38100         6.89300        29.62300
O           7.84200         5.90700        28.73100
H           7.86900         6.35700        27.83800
C           7.96200         6.55200        31.04400
O           8.58000         5.41500        31.66200
H           8.04300         5.13000        32.45600
C           8.55500        10.77000        30.00300
O           8.72000        11.46200        28.75600
H           8.49000        12.42800        28.87600
C           8.56300         9.26600        30.22200
O           7.89100         9.05200        31.47100
C           8.22100         7.74200        31.95400
O           7.36700         7.54600        33.09000

