# freq=raman b3lyp/6-31+g(2d,p) geom=connectivity

550 8170/8170.com

0 1
C          10.27500         7.80900         2.26700
C          10.18700         9.15100         2.97500
O          10.53700        10.21900         2.08200
H          10.08100        10.17100         1.19300
C          10.93000         9.12900         4.30000
O          10.52000        10.35700         4.91800
H          10.89300        11.18100         4.49200
C           9.90900         5.39500         2.36600
O           9.31400         4.26900         3.02700
H           9.71000         3.37000         2.84200
C           9.63600         6.70200         3.09100
O          10.31900         6.70400         4.35300
C          10.33400         7.95400         5.05800
O          10.75200         7.70200         6.40800
C           9.68500         7.78100         7.36300
C           9.28800         6.35500         7.70900
O           8.47200         5.67100         6.74700
H           8.83400         5.90200         5.84400
C           8.58400         6.34300         9.05600
O           8.23200         5.04900         9.56500
H           7.61500         4.74500         8.83900
C          10.87100         9.86400         8.24800
O          11.74700        10.26000         9.31300
H          12.72800        10.17200         9.13700
C          10.38000         8.45500         8.53500
O           9.63000         8.46400         9.75900
C           9.34200         7.10800        10.12900
O           8.70500         7.27900        11.40300
C           9.47900         7.22400        12.61000
C           9.60600         8.64400        13.13500
O          10.13800         9.70000        12.32100
H           9.82600         9.52000        11.38800
C          10.46800         8.47100        14.37500
O          10.65600         9.75200        14.99500
H          11.16400        10.50400        14.57500
C           8.54800         4.91800        13.10500
O           7.47300         4.20800        13.73800
H           7.39200         3.24500        13.47900
C           8.90900         6.28600        13.66200
O           9.72300         6.27600        14.84400
C           9.79900         7.58900        15.41700
O          10.63400         7.52300        16.58200
C           9.95100         7.76600        17.82000
C           9.66000         6.48300        18.58300
O           9.22600         5.38500        17.76900
H           8.99400         5.66900        16.83900
C           8.86900         6.53100        19.88000
O           8.49400         5.24500        20.39600
H           7.58300         4.97600        20.08500
C          11.20500         9.72300        18.32800
O          11.61100        10.64700        19.34800
H          12.41800        10.45600        19.90600
C          10.73100         8.41900        18.94900
O          10.02700         8.60300        20.18600
C           9.70800         7.36300        20.83600
O           9.25900         7.68000        22.16200
C          10.27300         7.47700        23.15700
C          10.22900         8.74100        23.99900
O          10.82300         9.71500        23.12900
H          10.48400         9.66500        22.19000
C          11.03900         8.71300        25.28500
O          11.01400        10.02200        25.87300
H          11.40400        10.42000        25.04300
C           9.85300         4.98000        23.74600
O           9.08300         4.03400        24.50200
H           9.30800         3.14400        24.10700
C           9.75500         6.44400        24.14400
O          10.41900         6.38400        25.41500
C          10.33000         7.64300        26.09800
O          11.13300         7.33900        27.24800
C          10.30900         7.38800        28.42200
C           9.61200         6.13200        28.92000
O           8.77200         5.61400        27.87900
H           9.38000         5.38200        27.12000
C           8.84800         6.14500        30.23400
O           8.49900         4.79100        30.56100
H           7.71500         4.53900        29.99400
C          11.83900         9.14300        29.13100
O          10.93600        10.25700        29.20100
H          10.09800        10.03200        28.70500
C          11.25000         7.80300        29.54100
O          10.64000         7.83400        30.84000
C           9.90400         6.65600        31.20000
O           9.36100         6.89200        32.50700
C          10.26400         6.67200        33.60000
C          10.72500         7.96800        34.24800
O          11.91000         8.37200        33.54600
H          11.72200         8.37300        32.56400
C          11.16500         7.95900        35.70300
O          10.84300         9.22700        36.29300
H          11.08400         9.82600        35.52900
C           9.66300         4.36400        33.69800
O          10.93700         3.76000        33.43300
H          10.89500         2.89500        32.93300
C           9.69500         5.62600        34.54500
O          10.37500         5.62400        35.80900
C          10.38500         6.90000        36.46500
O          11.26900         6.43800        37.49700
C          10.70300         6.49800        38.81400
C          10.01300         5.20500        39.21600
O           9.13500         4.75800        38.17300
H           9.43500         4.98100        37.24600
C           9.35900         5.37400        40.57800
O           8.77600         4.09000        40.84300
H           8.03000         3.95500        40.19100
C          11.88600         8.54300        39.55400
O          10.93300         9.57400        39.25500
H          10.69200         9.40200        38.30000
C          11.54400         7.10900        39.92300
O          10.75100         7.27900        41.10800
C          10.33500         5.98600        41.57000
O           9.74200         6.22200        42.85500
C           5.33600         4.73500         0.00400
C           5.48300         1.58300        42.21300
O           5.20100         0.54800        41.26000
H           5.07800         0.99600        40.37400
C           4.50400         3.07100         1.76100
O           4.50400         1.67300         2.08300
H           4.59200         1.34800         1.14200
C           5.69500         7.03000         0.81500
O           6.13800         7.97100         1.80400
H           5.51500         8.75200         1.85600
C           5.85500         5.56100         1.16900
O           5.05400         5.32400         2.33600
C           4.94500         4.00000         2.88000
O           4.10300         3.82800         4.02900
C           4.74400         4.19800         5.25800
C           4.47800         5.56800         5.86200
O           4.98900         6.53000         4.92900
H           4.80000         6.30300         3.97300
C           4.95800         5.78600         7.28800
O           4.44900         7.01800         7.82000
H           4.90900         7.71100         7.26400
C           4.45700         1.69700         6.05900
O           3.96200         0.75100         7.01900
H           4.02100        -0.19700         6.70600
C           4.29800         3.18900         6.30300
O           4.89200         3.37500         7.59600
C           4.35100         4.62300         8.05400
O           5.04700         4.69300         9.30700
C           4.42800         4.17100        10.49200
C           4.68600         2.73100        10.90300
O           4.41300         1.70800         9.93400
H           4.70200         2.18500         9.10400
C           3.99900         2.35200        12.20500
O           4.38500         1.14000        12.86800
H           4.10400         0.35000        12.32300
C           5.17400         6.49600        11.38400
O           5.45500         7.28200        12.55200
H           5.60500         8.23600        12.29400
C           4.96800         5.01200        11.63700
O           4.10000         4.78000        12.75600
C           4.36400         3.44100        13.20000
O           3.62200         3.39700        14.42800
C           4.49000         3.63900        15.54400
C           4.01600         4.89800        16.25200
O           3.71200         5.99400        15.37700
H           3.35600         5.61800        14.52200
C           4.78000         5.21700        17.52700
O           4.41700         6.54600        17.93000
H           4.65300         7.21600        17.22600
C           4.46200         1.21400        16.17200
O           3.76400         0.46800        17.18000
H           3.59900        -0.45400        16.83100
C           4.27900         2.63900        16.66900
O           5.01600         3.01300        17.84200
C           4.56900         4.15300        18.59100
O           5.39300         4.15300        19.76600
C           4.87100         3.68100        21.01700
C           5.17200         2.21800        21.29600
O           5.02400         1.25900        20.23800
H           4.98800         1.66700        19.32600
C           4.48200         1.83800        22.59600
O           4.36900         0.42000        22.78700
H           4.68200         0.00400        21.93300
C           4.90700         5.99200        21.95400
O           5.21100         6.65700        23.18900
H           5.51600         7.58700        22.98300
C           5.29700         4.54200        22.19500
O           4.74300         4.06800        23.43100
C           5.15300         2.71000        23.64500
O           4.55500         2.45000        24.92300
C           5.20400         2.84500        26.14000
C           5.05500         4.24100        26.72400
O           5.56100         5.09900        25.69000
H           5.33900         4.67600        24.81100
C           5.51000         4.46300        28.15700
O           5.19100         5.83400        28.43800
H           5.80900         6.45900        27.96200
C          10.72200        33.21400        26.62500
O          10.52600        32.16300        27.58200
H          10.35500        31.28500        27.13400
C           4.56300         1.93500        27.17400
O           4.93100         2.20900        28.53400
C           4.74200         3.52500        29.07400
O           5.49700         3.46500        30.29300
C           4.78500         3.21400        31.51300
C           5.19000         1.78700        31.84500
O           5.12400         0.76100        30.84400
H           5.12100         1.28200        29.99100
C           4.26300         1.45500        33.00400
O           3.86100         0.17500        33.51100
H           2.93400         0.34100        33.84600
C           5.72900         5.46200        32.47500
O           6.22300         6.35600        33.48300
H           5.98000         7.23700        33.07800
C           5.47300         3.97200        32.63700
O           4.68600         3.68500        33.80100
C           4.66100         2.30600        34.19900
O           3.89800         2.31500        35.41500
C           4.68900         2.48600        36.60000
C           4.78900         3.96400        36.94300
O           5.07600         4.88400        35.87900
H           4.84000         4.56200        34.96300
C           5.51400         4.23200        38.25200
O           5.51300         5.62600        38.59300
H           5.94400         6.10600        37.82900
C          10.62800        32.96800        37.53600
O          10.32300        31.75600        38.24200
H          10.48000        30.95300        37.66700
C           4.19100         1.72400        37.81700
O           4.74800         2.01800        39.10700
C           5.08100         3.37600        39.43000
O           6.07800         3.33900        40.46200
C          12.74300        15.95500         2.15500
C          13.22800        17.29900         2.67400
O          13.59600        18.22800         1.64400
H          12.96900        18.08100         0.88000
C          14.03200        17.04300         3.93800
O          14.85600        18.04900         4.54400
H          15.66100        18.05000         3.95100
C          11.76300        13.66900         2.67900
O          11.40700        12.52900         3.47400
H          11.08500        11.88500         2.78000
C          12.06700        15.06900         3.18800
O          12.78500        15.14000         4.42800
C          13.16200        16.39900         5.00500
O          13.84400        16.04300         6.21600
C          12.90800        16.08700         7.30300
C          12.72800        14.64200         7.73900
O          11.63500        14.07100         7.00600
H          11.75200        14.04800         6.01300
C          12.10300        14.49100         9.11700
O          12.36100        13.13800         9.52100
H          11.83400        12.57700         8.88300
C          13.57500        18.37400         8.14300
O          14.42700        19.08000         9.05600
H          14.53700        20.05100         8.84400
C          13.51100        16.88600         8.44700
O          12.90700        16.65600         9.72900
C          12.80900        15.30100        10.19200
O          12.00300        15.34700        11.37800
C          12.78300        15.54400        12.56600
C          13.06700        16.97600        12.99100
O          14.05100        17.51000        12.09300
H          13.95800        17.11200        11.18100
C          13.71700        17.15600        14.35300
O          13.29500        18.52200        14.47700
H          13.85600        18.95000        13.76800
C          11.70700        13.47100        13.39900
O          11.38800        12.73900        14.59200
H          10.47200        12.84900        14.97900
C          12.03200        14.91900        13.73000
O          12.74000        15.01800        14.97400
C          12.92900        16.37700        15.39300
O          13.55200        16.50500        16.68000
C          12.82100        16.33700        17.90400
C          12.54200        14.89800        18.30700
O          11.64500        14.25400        17.39000
H          11.83600        14.48900        16.43700
C          11.90800        14.77900        19.68300
O          11.98100        13.40000        20.07300
H          11.39700        12.99700        19.36900
C          13.54000        18.57100        18.64000
O          14.51200        19.59800        18.88500
H          14.03800        20.47700        18.94000
C          13.53100        17.09700        19.01200
O          13.10800        16.85200        20.36100
C          12.79700        15.49000        20.69100
O          12.10900        15.72600        21.92800
C          12.72400        15.16700        23.09800
C          13.89900        15.91300        23.70900
O          15.17100        15.24900        23.73200
H          15.24500        14.51700        23.05500
C          13.76700        16.56400        25.07600
O          13.37300        17.93200        24.89900
H          13.94300        18.36800        24.20200
C          11.39100        13.17400        23.63500
O          10.66900        12.40100        24.60500
H           9.88300        12.95900        24.87300
C          11.85100        14.52300        24.16300
O          12.33500        14.51800        25.51400
C          12.85900        15.76400        25.99600
O          13.55200        15.46800        27.21800
C          12.63500        15.39600        28.31900
C          12.39800        13.92700        28.63300
O          11.49800        13.29700        27.70900
H          11.90400        13.29400        26.79500
C          11.93000        13.69700        30.06100
O          11.75900        12.33800        30.49000
H          11.27600        11.71800        29.87200
C          13.31500        17.65900        29.05800
O          13.65000        18.70100        29.98600
H          13.50600        19.62000        29.61900
C          13.41900        16.17400        29.36300
O          12.90300        15.89000        30.67200
C          12.79400        14.50100        31.01800
O          12.18600        14.58100        32.31500
C          12.75500        14.23700        33.58700
C          13.18500        15.60400        34.09400
O          14.06900        16.36000        33.25200
H          13.54800        16.48200        32.40700
C          13.91300        15.52400        35.42600
O          14.58400        16.58100        36.12700
H          15.30700        16.82900        35.48100
C          11.44300        12.36800        34.02300
O          10.97800        11.36400        34.93700
H          10.16700        11.71900        35.40200
C          11.75800        13.73100        34.61600
O          12.33800        13.58100        35.92000
C          12.92100        14.82300        36.33900
O          13.60700        14.46400        37.54800
C          12.79400        14.67600        38.71100
C          12.53400        13.28900        39.27700
O          11.44100        12.55000        38.71300
H          11.56800        12.83600        37.76300
C          11.97100        13.13300        40.68000
O          12.21000        11.78500        41.11000
H          11.76100        11.12500        40.50900
C          13.63100        17.02700        39.47000
O          14.59100        17.72300        40.27800
H          14.27600        18.67100        40.23800
C          13.28600        15.58900        39.82200
O          12.63800        15.40700        41.08900
C          12.77200        14.06400        41.57700
O          12.11900        14.39200        42.81200
C           7.14400        10.94500        40.98500
C           6.54900         9.65000        41.51300
O           5.84800         9.03200        40.42400
H           6.41900         8.93000        39.60900
C           5.46500        11.42300         1.01400
O           4.92200        10.14000         1.35800
H           3.99800        10.03100         0.99000
C           8.45900        12.87500        42.06200
O           7.47800        13.84400        41.66600
H           7.83400        14.76100        41.48700
C           7.64500        13.16400         0.41500
O           6.77400        13.27800         1.55000
C           6.46200        11.96100         2.02700
O           5.95300        12.11200         3.36000
C           6.78100        11.95100         4.52100
C           7.35700        13.25300         5.05400
O           8.07600        13.88400         3.98500
H           7.45100        14.52800         3.54200
C           8.04700        13.11800         6.40100
O           8.64400        14.30600         6.93900
H           9.47200        14.05400         7.44100
C           5.19100        10.04900         5.06100
O           4.35200         9.25800         5.91600
H           4.53200         8.29700         5.70900
C           5.93100        11.27000         5.58200
O           6.69800        11.18900         6.79200
C           7.09200        12.44100         7.37200
O           7.70400        12.21700         8.65000
C           7.06000        12.41400         9.91800
C           6.45500        11.06500        10.27300
O           5.46200        10.38800         9.48800
H           5.82500        10.36500         8.55700
C           5.90200        11.22900        11.67900
O           5.52300         9.88000        11.98800
H           4.78300         9.72400        11.33400
C           8.48800        14.14100        10.39400
O           7.51200        15.13200        10.74900
H           7.95200        16.00000        10.51900
C           8.13500        12.76400        10.93300
O           7.78700        12.77300        12.32500
C           6.98500        11.63300        12.66600
O           6.25500        11.99800        13.84600
C           6.91000        11.69300        15.08600
C           7.68600        12.86500        15.66500
O           8.73100        13.41600        14.85100
H           8.38300        13.37400        13.91400
C           8.19800        12.58600        17.06900
O           8.91900        13.60500        17.77600
H           9.83700        13.65500        17.38400
C           5.27000         9.89300        15.45900
O           4.48000         9.24200        16.46500
H           3.85400         8.53100        16.14400
C           5.85200        11.16900        16.04500
O           6.47900        10.92100        17.31200
C           7.09900        12.03800        17.96500
O           7.63300        11.34400        19.10200
C           6.81100        11.64900        20.23800
C           6.13700        10.33100        20.58300
O           5.09900        10.06600        19.62800
H           5.59300        10.06200        18.75800
C           5.49800        10.37400        21.96200
O           4.79400         9.23400        22.47400
H           3.94400         9.56000        22.88800
C           8.10500        13.54800        21.02700
O           7.20700        14.64700        21.23900
H           7.55900        15.58300        21.19700
C           7.74200        12.10800        21.34900
O           7.04300        12.10700        22.60200
C           6.58100        10.79100        22.94300
O           5.89900        11.19700        24.13800
C           6.70200        11.08600        25.32200
C           7.41700        12.32400        25.83800
O           8.12300        13.09800        24.85600
H           7.47100        13.18500        24.10300
C           8.15100        12.15300        27.15800
O           8.66500        13.33700        27.78500
H           9.65800        13.24300        27.71400
C           5.30600         9.23200        26.11800
O           6.24300         8.15400        26.25300
H           5.98300         7.46100        25.58000
C           5.80500        10.62600        26.45900
O           6.44000        10.54200        27.74300
C           7.07600        11.76000        28.15800
O           7.73000        11.32100        29.35700
C           6.91300        11.17500        30.52700
C           6.45200         9.78400        30.93200
O           5.72500         9.26400        29.80900
H           6.20500         9.61700        29.00600
C           5.67400         9.79800        32.23700
O           5.08700         8.49800        32.39900
H           4.16100         8.81600        32.60700
C           8.31900        13.11400        31.62000
O           7.56400        14.31500        31.84200
H           8.10200        15.09700        31.52700
C           7.69300        11.73200        31.70700
O           7.07500        11.56300        32.99100
C           6.64800        10.23300        33.32000
O           6.08800        10.67500        34.56500
C           6.84300        10.37300        35.74800
C           7.55100        11.61600        36.26100
O           8.53800        12.10700        35.34200
H           8.21400        12.04000        34.39900
C           8.30900        11.49400        37.57300
O           8.95900        12.69000        38.02600
H           9.69700        12.49800        38.67300
C           5.40200         8.49300        36.29000
O           6.37300         7.44000        36.19500
H           6.06800         6.80100        35.48900
C           5.95800         9.79600        36.84100
O           6.67500         9.78600        38.08400
C           7.23900        11.02200        38.54400
O           7.88900        10.70000        39.78300
C          14.22400        23.85000         4.07600
C          13.63600        25.20200         4.44500
O          13.61000        26.24000         3.45500
H          13.27500        25.81700         2.61300
C          14.10400        25.53800         5.85200
O          13.40100        26.68400         6.35500
H          13.57800        27.51300         5.82400
C          13.95800        21.31500         4.67300
O          15.28400        20.77900         4.55800
H          15.13800        19.80900         4.36700
C          13.83000        22.77500         5.07700
O          14.30600        23.16200         6.37400
C          13.79100        24.42100         6.83300
O          14.79200        24.49800         7.85800
C          14.23200        23.91900         9.04500
C          14.84400        22.66100         9.64200
O          14.75500        21.57100         8.71300
H          14.76500        21.97700         7.80000
C          14.24300        22.05100        10.89700
O          15.08700        21.00000        11.39100
H          14.97100        20.16200        10.85800
C          14.22100        26.31000        10.02700
O          14.52300        27.00400        11.24600
H          14.40700        27.99100        11.14100
C          14.37100        24.81600        10.26400
O          13.59600        24.39300        11.39500
C          14.23900        23.20700        11.88400
O          13.48500        23.04200        13.09400
C          13.94700        23.48400        14.37800
C          13.44300        24.80500        14.93600
O          13.49100        25.80900        13.91200
H          13.28000        25.56700        12.96600
C          14.02800        25.24200        16.26900
O          13.40100        26.44700        16.73400
H          13.56600        27.15100        16.04300
C          14.67500        21.51900        15.32500
O          14.37300        20.23300        15.88500
H          14.00800        19.54300        15.26000
C          13.56100        22.53900        15.50500
O          13.57400        22.89000        16.89600
C          13.51200        24.26200        17.31000
O          14.13800        24.45900        18.58600
C          13.51400        23.98800        19.79000
C          13.84100        22.52100        20.01800
O          13.03900        21.75700        19.10700
H          13.24600        22.06400        18.17800
C          13.77300        22.07000        21.46800
O          14.49200        20.83000        21.55000
H          14.53700        20.38500        20.65600
C          13.39100        26.20500        20.69700
O          13.93400        27.16000        21.62000
H          13.85700        28.01500        21.10800
C          13.96300        24.82400        20.97700
O          13.52700        24.43200        22.28700
C          14.18700        23.16700        22.43500
O          13.79300        22.72300        23.74200
C          14.13800        23.41800        24.94900
C          13.67900        24.76500        25.48200
O          14.15900        25.89400        24.73700
H          14.23800        25.75300        23.75000
C          13.98200        25.15600        26.92000
O          13.41500        26.31200        27.55400
H          13.42100        26.97400        26.80500
C          14.39500        21.03600        25.71300
O          14.15900        19.82000        26.43700
H          13.74400        19.15700        25.81400
C          13.94600        22.43700        26.09400
O          14.40000        22.81500        27.40200
C          13.73900        23.99800        27.87500
O          14.41500        24.11400        29.13500
C          13.92700        23.59800        30.38200
C          14.43700        22.19700        30.68000
O          13.94500        21.25200        29.71900
H          14.35300        21.62800        28.88800
C          13.77600        21.72100        31.96400
O          14.07400        20.35600        32.29400
H          14.46600        19.93500        31.47700
C          14.08100        25.97200        31.30700
O          14.56300        27.08400        32.07600
H          14.17400        27.95700        31.78200
C          14.45200        24.50800        31.48000
O          14.01700        24.02300        32.75900
C          14.34600        22.65100        33.02200
O          13.65600        22.43200        34.26100
C          14.15000        22.63400        35.59300
C          13.92400        24.07900        36.00800
O          14.62900        24.99400        35.15600
H          14.36300        24.66600        34.25000
C          14.23300        24.19000        37.49200
O          13.51600        25.38600        37.83200
H          13.72300        26.17300        37.25100
C          14.13600        20.19900        36.14200
O          13.96800        19.04200        36.97300
H          13.77700        18.22600        36.42800
C          13.56200        21.56200        36.49500
O          14.09300        21.76000        37.81400
C          13.78700        23.04200        38.38300
O          14.69300        22.96200        39.49200
C          14.13400        22.57100        40.75400
C          14.82600        21.27000        41.12900
O          14.68000        20.40800        39.99100
H          14.71000        21.06800        39.24000
C          14.31100        22.43700         0.75300
O          14.85500        21.16200         1.12600
H          14.29500        20.46700         0.67600
C          14.40400        25.00300        41.52200
O          12.98400        25.21100        41.49300
H          12.79200        26.12100        41.12600
C          14.39600        25.23200         0.03200
O          13.79400        24.80500         1.26200
C          14.39800        23.59300         1.73600
O          13.64300        23.25200         2.90800
C           9.59400        20.25600         0.36000
C           9.33900        18.87800         0.94900
O           8.99900        17.74300         0.13800
H           9.42600        17.86800        -0.75700
C           8.58000        19.03300         2.25600
O           7.75600        17.99900         2.81300
H           7.34700        17.64500         1.97200
C           9.97000        22.62900         0.96700
O          10.33400        23.92000         1.47700
H          10.40400        24.62500         0.77200
C          10.29800        21.19000         1.33000
O           9.92500        20.94200         2.69400
C           9.60900        19.63700         3.19900
O           8.87500        19.89400         4.40500
C           9.57000        19.64300         5.63600