# freq=raman b3lyp/6-31+g(2d,p) geom=connectivity

310 9644/9644.com

0 1
C           8.18200         7.85400         3.11200
C           7.51300         9.12500         3.60900
O           7.75900        10.14000         2.62500
H           7.57900         9.60200         1.80200
C           8.08800         9.54400         4.95200
O           7.47300        10.74600         5.43800
H           8.01500        10.96000         6.25100
C           8.83500         5.54500         3.99700
O           9.02800         4.83300         2.76600
H           8.85700         3.85800         2.90700
C           8.04300         6.82200         4.22000
O           8.43300         7.26800         5.52700
C           7.89300         8.49700         6.03600
O           8.55000         8.91700         7.24000
C           7.91700         8.47300         8.44900
C           8.62400         7.22100         8.94200
O           8.68800         6.20800         7.92800
H           8.77500         6.71200         7.06800
C           7.94800         6.74400        10.21700
O           8.50800         5.53100        10.74100
H           8.05300         5.28300        11.59600
C           7.88200        10.88100         9.19500
O           8.29600        11.48400         7.96000
H           8.23100        12.48200         7.98900
C           8.16000         9.44100         9.59500
O           7.48100         8.95700        10.76300
C           8.12300         7.79300        11.30300
O           7.24400         7.54700        12.41000
C           7.85000         7.84200        13.67700
C           7.33700         9.18200        14.17900
O           7.67800        10.24400        13.27700
H           7.50000         9.87200        12.36600
C           7.93200         9.54400        15.53000
O           7.49800        10.81000        16.04800
H           8.01500        11.03400        16.87500
C           8.16500         5.39000        14.38600
O           7.86000         4.66700        13.18400
H           8.08900         3.70400        13.33300
C           7.69600         6.78600        14.76000
O           8.35600         7.21000        15.96200
C           7.82400         8.41200        16.53800
O           8.75100         8.72600        17.58800
C           8.31700         8.38000        18.91100
C           8.90500         7.06600        19.39900
O           8.96100         6.00800        18.43000
H           9.32000         6.32300        17.55100
C           8.33500         6.65600        20.74700
O           8.80400         5.42500        21.31700
H           8.31800         5.28900        22.18000
C           8.10200        10.72200        19.64200
O           8.29300        11.40600        18.39500
H           7.96400        12.34800        18.46400
C           8.72100         9.37700        19.98500
O           8.08200         9.00800        21.21600
C           8.55700         7.76800        21.76000
O           7.62400         7.61900        22.84100
C           8.14600         7.97800        24.12800
C           7.55900         9.30800        24.57200
O           7.96700        10.32600        23.64700
H           7.64200        10.09700        22.73000
C           7.95200         9.70300        25.98600
O           7.17100        10.77000        26.54500
H           7.47800        10.94100        27.48100
C           8.22400         5.57600        25.02900
O           7.87900         4.91900        23.80100
H           8.08400         3.94200        23.86800
C           7.68700         6.98900        25.18800
O           8.25500         7.31000        26.46600
C           7.67000         8.53800        26.92100
O           8.36900         8.69900        28.16400
C           8.04500         8.36300        29.52100
C           8.47900         6.97400        29.95800
O           8.06700         5.92300        29.07200
H           8.09000         6.28300        28.13900
C           8.01900         6.64000        31.36700
O           8.84100         5.54800        31.80400
H           8.37300         5.19700        32.61500
C           7.87500        10.78200        30.29600
O           8.16900        11.31000        28.99400
H           8.11700        12.30500        29.07500
C           8.45800         9.40100        30.55200
O           7.90400         9.11800        31.84500
C           8.16300         7.79700        32.34300
O           7.41800         7.48800        33.52900
C           8.21300         7.92100        34.64300
C           7.53700         9.12700        35.27500
O           7.54200        10.22700        34.35400
H           7.39700         9.80900        33.45700
C           8.10700         9.65500        36.58100
O           7.51200        10.82900        37.15300
H           7.79200        10.76500        38.11100
C           8.70200         5.50100        35.32100
O           8.21400         4.66300        34.26300
H           8.44800         3.70700        34.43800
C           8.09300         6.84000        35.70400
O           8.63100         7.29800        36.95300
C           8.17800         8.50900        37.57600
O           8.90600         8.73300        38.79200
C           8.13200         8.35300        39.93900
C           8.60700         6.98600        40.40300
O           8.17100         5.96200        39.49800
H           8.38400         6.31000        38.58500
C           8.26600         6.51100        -0.26500
O           9.03400         5.38200         0.17700
H           8.85900         5.30400         1.15800
C           7.78900        10.72200        40.80500
O           8.16600        11.43300        39.61700
H           8.04400        12.41000        39.79300
C           8.41100         9.35900        -1.02800
O           7.72200         8.94500         0.16100
C           8.36700         7.74700         0.61500
O           7.71800         7.37700         1.84100
C           3.87300         4.44800         0.35000
C           4.10700         3.00200        42.83500
O           3.62200         2.05200        41.87500
H           3.95300         2.37600        40.98800
C           3.54800         2.63300         2.12900
O           4.06200         1.38900         2.62700
H           3.82400         1.24500         3.58700
C           3.97300         6.81300         1.16900
O           4.34100         7.55000        -0.00700
H           4.17600         8.50700         0.23000
C           4.43000         5.38400         1.41000
O           3.78900         5.01000         2.63800
C           4.06700         3.68000         3.10100
O           3.41500         3.63000         4.37900
C           4.19700         3.86300         5.55900
C           3.99100         5.29000         6.04000
O           4.11300         6.28500         5.01300
H           3.77900         5.86200         4.17100
C           4.47800         5.69400         7.42200
O           3.88600         6.94800         7.79000
H           4.17700         7.10900         8.73400
C           3.99400         1.48500         6.36300
O           3.74700         0.86200         5.09400
H           3.85500        -0.11900         5.26000
C           3.72800         2.94800         6.67800
O           4.35800         3.26500         7.92800
C           4.02100         4.59000         8.36200
O           4.76700         4.85200         9.56000
C           4.20500         4.29900        10.75900
C           4.66200         2.93100        11.23700
O           4.53600         1.87900        10.27000
H           4.22200         2.24200         9.39200
C           4.02500         2.59800        12.57600
O           4.25400         1.25400        13.02400
H           4.13700         1.13200        14.00900
C           3.99400         6.68500        11.64800
O           4.16600         7.55000        10.51600
H           4.29200         8.48000        10.86100
C           4.51900         5.27700        11.87900
O           4.06000         4.92500        13.19200
C           4.47800         3.61700        13.60900
O           3.81000         3.41500        14.86300
C           4.40800         3.83500        16.09800
C           3.87200         5.17400        16.57800
O           3.95900         6.20600        15.58500
H           3.73400         5.74400        14.72700
C           4.41300         5.67500        17.90700
O           3.74500         6.84600        18.39900
H           4.14500         7.02600        19.29700
C           4.67700         1.48200        16.94600
O           4.14300         0.79800        15.80300
H           4.34800        -0.17900        15.74500
C           4.15800         2.87700        17.25100
O           4.81100         3.36000        18.43500
C           4.21100         4.56700        18.92800
O           5.00900         4.76500        20.10400
C           4.38300         4.37700        21.33500
C           4.96500         3.05500        21.80900
O           4.85500         2.03400        20.80700
H           5.11500         2.44800        19.93500
C           4.42800         2.67000        23.17800
O           4.84100         1.39000        23.67600
H           4.52900         1.37600        24.62500
C           3.96100         6.75000        22.19100
O           4.26500         7.50400        21.00800
H           4.20900         8.48700        21.18100
C           4.60700         5.39700        22.44000
O           4.13200         4.96600        23.72400
C           4.66000         3.73400        24.23800
O           3.81000         3.41900        25.35000
C           4.33200         3.78400        26.63600
C           3.74900         5.13800        27.00300
O           3.81800         6.27100        26.12400
H           3.65300         5.93200        25.19800
C           4.28900         5.57000        28.35700
O           3.84000         6.86100        28.79300
H           4.21300         6.96500        29.71500
C           4.30200         1.37500        27.44000
O           3.97800         0.78800        26.17200
H           4.09500        -0.20500        26.15700
C           3.90400         2.81400        27.72500
O           4.37800         3.29400        28.99100
C           3.93000         4.57700        29.45100
O           4.70900         4.74000        30.64500
C           4.04000         4.35100        31.85400
C           4.36500         2.94200        32.32000
O           4.10600         1.97200        31.29500
H           4.24700         2.46800        30.43900
C           3.67300         2.67000        33.64600
O           4.00500         1.35200        34.10800
H           3.65600         1.20200        35.03300
C           3.71500         6.72700        32.74200
O           4.15600         7.33500        31.52000
H           4.67000         8.16100        31.75200
C           4.30600         5.34600        32.97200
O           3.81300         5.04100        34.28400
C           4.07000         3.69100        34.70000
O           3.44100         3.55500        35.98200
C           4.20200         3.94300        37.13400
C           3.75100         5.29700        37.65600
O           4.10100         6.28700        36.67800
H           4.10400         5.80200        35.80400
C           4.33200         5.62100        39.02300
O           4.01300         6.92300        39.53600
H           4.23000         7.16100        40.48200
C           4.38600         1.47800        37.82500
O           3.95000         0.69200        36.70600
H           4.24700        -0.26200        36.74900
C           3.84500         2.86200        38.14100
O           4.35100         3.19700        39.44100
C           3.94700         4.47800        39.94700
O           4.61200         4.65700        41.20600
C           8.07100        16.13800         3.09700
C           7.51500        17.46600         3.58700
O           7.58200        18.48800         2.58200
H           7.39500        18.09400         1.68200
C           8.15100        17.89700         4.89900
O           7.69900        19.15000         5.43200
H           8.08500        19.27500         6.34600
C           8.34600        13.79000         3.93400
O           7.83500        12.86700         2.96200
H           7.81200        11.94100         3.34000
C           7.69700        15.14200         4.18200
O           8.20200        15.50300         5.47600
C           7.75000        16.80400         5.87700
O           8.55400        16.91500         7.06000
C           7.90800        16.57800         8.29600
C           8.37800        15.19400         8.71100
O           8.08200        14.15400         7.76700
H           8.24300        14.44900         6.82500
C           8.01600        14.83100        10.14200
O           8.77500        13.71600        10.63200
H           8.32100        13.34300        11.44200
C           7.72200        18.97500         8.97300
O           8.46900        19.73600         8.01100
H           8.15300        20.68000         8.11000
C           8.30400        17.61800         9.33200
O           7.98600        17.23400        10.67700
C           8.30800        15.92200        11.16000
O           7.46600        15.74800        12.30900
C           7.94700        16.09400        13.61700
C           7.44900        17.43900        14.12000
O           7.82000        18.50000        13.22800
H           7.90200        18.04300        12.34200
C           7.95500        17.72100        15.52500
O           7.25100        18.91800        15.88500
H           7.59800        19.10100        16.80500
C           7.97200        13.61000        14.28000
O           7.53700        12.77200        13.19800
H           7.64700        11.81200        13.45400
C           7.51800        15.02300        14.60600
O           7.99200        15.30100        15.93200
C           7.48600        16.56300        16.39000
O           8.36500        16.67700        17.51800
C           7.75200        16.48200        18.80100
C           8.14600        15.10600        19.31300
O           7.83200        14.14900        18.29100
H           8.20900        14.52600        17.44500
C           7.70200        14.78800        20.73100
O           8.36500        13.58700        21.15100
H           8.24600        13.38700        22.12400
C           7.64500        18.80600        19.59600
O           7.91400        19.53900        18.39300
H           7.85000        20.52500        18.54800
C           8.23800        17.43500        19.88100
O           7.62800        17.21500        21.16100
C           8.10300        15.94500        21.63200
O           7.28900        15.79500        22.80400
C           7.78000        16.15900        24.10200
C           7.30700        17.55200        24.48200
O           7.35700        18.56300        23.46500
H           7.13300        18.03400        22.64700
C           7.85400        17.89600        25.85800
O           7.51000        19.16700        26.42900
H           8.00700        19.28000        27.28900
C           7.71400        13.73400        24.93900
O           7.37900        13.07900        23.70700
H           7.42200        12.10000        23.90600
C           7.37000        15.19100        25.20100
O           7.98800        15.59000        26.43300
C           7.53200        16.85900        26.92200
O           8.27500        17.10100        28.12600
C           7.73700        16.58500        29.35200
C           8.26600        15.21600        29.75000
O           7.98900        14.15300        28.82700
H           8.10900        14.64600        27.96500
C           7.88400        14.85200        31.17500
O           8.61700        13.67600        31.54900
H           8.33800        13.32600        32.44300
C           7.64700        19.04100        30.11300
O           8.20100        19.72900        28.98200
H           8.24800        20.70600        29.19300
C           8.04800        17.61000        30.43100
O           7.45500        17.18700        31.66700
C           8.14400        16.01300        32.12100
O           7.57200        15.72600        33.40600
C           8.19400        16.07700        34.65100
C           7.94200        17.51200        35.08300
O           8.34500        18.53500        34.16000
H           8.20600        18.27900        33.20300
C           8.56900        17.80500        36.43600
O           7.97400        19.01700        36.92200
H           8.02900        19.11100        37.91600
C           7.95600        13.61800        35.52000
O           7.78300        12.85100        34.32000
H           7.83900        11.88200        34.56200
C           7.71500        15.10600        35.71800
O           8.24500        15.48500        36.99600
C           8.06600        16.82300        37.48200
O           8.80600        16.96900        38.70300
C           8.08000        16.62900        39.89300
C           8.53400        15.27100        40.40200
O           8.25600        14.21000        39.47500
H           8.51000        14.68300        38.63200
C           7.88800        14.84300        -0.36100
O           8.61900        13.71500         0.14000
H           8.33200        13.49200         1.07200
C           7.67900        18.97000        40.67400
O           8.13500        19.60700        39.47200
H           8.02600        20.58600        39.64100
C           8.30900        17.63200        -1.06000
O           7.68700        17.23800         0.17200
C           8.15800        15.96300         0.63100
O           7.44600        15.76200         1.86100
C           4.12200        12.50000         0.24700
C           4.36800        11.11600        42.90300
O           3.93400        10.11800        41.96800
H           4.18600        10.41100        41.04500
C           3.74000        10.90800         2.20100
O           4.23300         9.69100         2.78000
H           3.97300         9.60200         3.74100
C           4.22700        14.94200         1.00400
O           4.61100        15.73300        -0.13100
H           4.49700        16.70800         0.05800
C           4.51500        13.48700         1.33400
O           3.86200        13.35300         2.60500
C           4.07700        12.04400         3.15300
O           3.29200        11.78700         4.32700
C           3.85000        12.13500         5.60200
C           3.48900        13.55200         6.01500
O           3.97400        14.49300         5.04500
H           4.04100        14.06500         4.14400
C           3.98600        13.89700         7.41000
O           3.49300        15.09400         8.02900
H           3.68200        15.13700         9.01000
C           4.14800         9.82400         6.38300
O           3.57700         9.04700         5.31900
H           3.55900         8.08000         5.57300
C           3.41400        11.12700         6.65400
O           4.02400        11.49300         7.90000
C           3.64900        12.78800         8.39300
O           4.42100        12.92700         9.59400
C           3.67200        12.60400        10.77500
C           4.04700        11.22800        11.30100
O           3.84500        10.19700        10.32300
H           4.21200        10.55100         9.46300
C           3.29700        10.89800        12.58100
O           3.90600         9.69800        13.08100
H           3.69900         9.45700        14.02900
C           3.59800        15.05600        11.64800
O           4.04200        15.77400        10.48700
H           3.75100        16.72300        10.60700
C           4.00400        13.60800        11.86700
O           3.33600        13.26800        13.09000
C           3.77500        11.97800        13.53800
O           3.02700        11.83800        14.75500
C           3.67400        12.19300        15.98600
C           3.32100        13.56800        16.52900
O           3.71000        14.52300        15.53200
H           3.30000        14.16000        14.69500
C           3.97500        13.83300        17.87500
O           3.40300        15.07000        18.32500
H           3.48900        15.13400        19.31900
C           3.99100         9.76300        16.72600
O           3.50200         8.92500        15.66800
H           3.61800         7.98000        15.97500
C           3.39800        11.12800        17.03500
O           4.04000        11.40300        18.28800
C           3.59500        12.67500        18.78300
O           4.41500        12.86800        19.94400
C           3.82800        12.46400        21.19000
C           4.27200        11.10500        21.70800
O           4.08000        10.08500        20.71700
H           4.16400        10.47900        19.80200
C           3.68000        10.82500        23.07900
O           4.10900         9.51700        23.48300
H           3.76500         9.35500        24.40800
C           3.64800        15.00200        22.08000
O           3.75200        15.81700        20.90300
H           3.69900        16.77400        21.18800
C           4.11900        13.56200        22.20000
O           3.66800        13.23100        23.52100
C           4.11300        11.95300        24.00100
O           3.41500        11.80600        25.24500
C           4.08200        11.97900        26.50400
C           3.68100        13.32700        27.08000
O           3.81300        14.32000        26.05200
H           3.43300        13.81200        25.27900
C           4.40200        13.70500        28.36300
O           3.94200        14.97600        28.84600
H           4.33700        15.02400        29.76300
C           3.94300         9.57400        27.37100
O           3.70300         8.95100        26.10100
H           3.54600         7.98300        26.29700
C           3.65400        11.04500        27.62400
O           4.22800        11.30300        28.91400
C           4.00800        12.64300        29.37700
O           4.71400        12.76800        30.62000
C           3.96400        12.50700        31.81500
C           4.40900        11.15800        32.35700
O           4.43300        10.06300        31.43000
H           4.47200        10.48700        30.52500
C           3.68400        10.70800        33.61500
O           4.13300         9.47300        34.19200
H           3.73600         9.29800        35.09200
C           3.76900        14.86300        32.69200
O           4.00900        15.71100        31.56000
H           3.82800        16.65200        31.84700
C           4.36600        13.48100        32.91000
O           3.84700        13.18700        34.21500
C           4.04400        11.81600        34.59100
O           3.24000        11.83000        35.77900
C           3.97500        12.04100        36.99400
C           3.68400        13.40900        37.59100
O           4.05300        14.33300        36.55600
H           3.76200        13.94000        35.68400
C           4.35500        13.77900        38.90400
O           3.95000        15.01100        39.51700
H           4.24200        15.14900        40.46400
C           3.90800         9.71700        37.90500
O           3.59100         9.04700        36.67500
H           3.84400         8.08000        36.65100
C           3.64200        11.18300        38.20400
O           4.29400        11.42700        39.45800
C           3.97500        12.73900        39.94500
O           4.80900        12.85500        41.10700
C           8.03000        24.40100         3.15500
C           7.40800        25.63700         3.78400
O           7.33400        26.67500         2.79600
H           7.36800        26.19300         1.92100
C           7.99500        26.05800         5.12200
O           7.20400        27.18400         5.52900
H           7.40300        27.37800         6.49000
C           8.31900        21.85700         3.85100
O           7.98200        21.12400         2.66500
H           8.05300        20.13300         2.78100
C           7.81300        23.26200         4.13800
O           8.48400        23.65700         5.34300
C           7.85400        24.79300         5.95200
O           8.60200        24.95900         7.16500
C           7.77800        24.65800         8.30100
C           8.21600        23.30800         8.84400
O           8.08300        22.29000         7.84100
H           8.47200        22.70100         7.01700
C           7.63300        22.78000        10.14500
O           8.22800        21.59300        10.68800
H           7.84100        21.46600        11.60100
C           7.51800        27.06400         9.09800
O           8.21600        27.69600         8.01600
H           8.22800        28.68200         8.18300
C           8.03900        25.66900         9.40600
O           7.39000        25.15000        10.57500
C           7.93500        23.92800        11.09400
O           7.25400        23.66700        12.33000
C           7.76500        24.16300        13.57500
C           7.32400        25.53900        14.04800
O           7.64300        26.54000        13.07000
H           7.29500        26.17300        12.20700
C           7.89200        25.89200        15.41300
O           7.19900        27.01200        15.98300
H           7.65700        27.32600        16.81400
C           7.89400        21.72700        14.43100
O           7.46200        21.05000        13.24100
H           7.54800        20.07500        13.44800
C           7.49900        23.17000        14.69500
O           8.07700        23.54800        15.95300
C           7.58600        24.80800        16.43400
O           8.50200        24.94300        17.53000
C           7.86700        24.66400        18.78700
C           8.36800        23.30900        19.26100
O           8.09600        22.26400        18.31600
H           8.15500        22.64400        17.39300
C           7.85600        22.91500        20.63600
O           8.40200        21.68400        21.13300
H           7.92100        21.38600        21.95800
C           7.68700        27.05900        19.51600
O           7.98900        27.74500        18.29300
H           7.79300        28.71100        18.45900
C           8.29900        25.69900        19.81200
O           7.73600        25.37500        21.09200
C           8.15100        24.08400        21.56200
O           7.60900        23.83100        22.86600
C           8.10700        24.22200        24.15400
C           7.68500        25.62300        24.56300
O           7.99300        26.58800        23.54600
H           7.82900        26.06700        22.70800
C           8.06200        25.96600        25.99500
O           7.27700        27.11000        26.36000
H           7.51600        27.33300        27.30500
C           7.92600        21.83000        24.90500
O           7.39200        21.08400        23.80100
H           7.60800        20.11000        23.87500
C           7.46900        23.26000        25.14300
O           8.07100        23.53700        26.41600
C           7.69800        24.82400        26.92900
O           8.28400        25.05200        28.21900
C           7.69600        24.63700        29.46100
C           8.50400        23.42500        29.89400
O           8.19600        22.25200        29.12700
H           8.24700        22.52900        28.16700
C           8.00700        23.03000        31.27500
O           8.65400        21.88600        31.85100
H           8.29400        21.72300        32.77000
C           7.56000        27.18300        30.05500
O           7.81300        27.79400        28.78100
H           7.89000        28.77900        28.93500
C           8.08600        25.79200        30.36800
O           7.59000        25.47300        31.67600
C           8.19500        24.26000        32.14800
O           7.46400        24.03400        33.36200
C           7.94800        24.25600        34.69500
C           7.31300        25.56300        35.14200
O           7.58700        26.69600        34.30600
H           7.42800        26.34600        33.38300
C           7.78900        25.89200        36.54700
O           7.41300        27.19000        37.02900
H           7.78800        27.30900        37.94800
C           8.10100        21.78700        35.46200
O           7.69600        21.09600        34.27200
H           7.99700        20.14300        34.27500
C           7.45700        23.15500        35.62000
O           7.85100        23.50600        36.95400
C           7.43500        24.76500        37.50400
O           8.16500        24.93500        38.72800
C           7.65800        24.70900        40.05100
C           8.40300        23.43300        40.41100
O           8.22700        22.34000        39.49700
H           8.37900        22.74700        38.59700
C           8.01500        23.10500        -0.22800
O           8.68000        21.92900         0.25400
H           8.34000        21.47200         1.07600
C           7.72800        27.16000        40.64300
O           8.15900        27.79700        39.43100
H           8.13900        28.79700        39.46000
C           8.17100        25.75900        -1.04900
O           7.60300        25.56800         0.25500
C           8.11700        24.30500         0.70000
O           7.38600        24.07500         1.91400
C           3.68700        20.65800         0.27300
C           4.12100        19.25400        42.74300
O           3.89400        18.25500        41.73800
H           3.82100        18.76600        40.88100
C           3.72800        18.94300         2.10800
O           4.23400        17.67500         2.54800
H           3.89400        17.49300         3.47000
C           3.74700        23.01400         1.10300
O           4.20800        23.70600        -0.06700
H           4.14600        24.70000         0.02500
C           4.19400        21.58600         1.36500
O           3.58900        21.32200         2.64000
C           4.02400        20.04000         3.11700
O           3.33800        19.83300         4.36100
C           3.92000        20.22000         5.61400