# freq=raman b3lyp/6-31+g(2df,p) geom=connectivity

500 10000.com

0 1
 O                  8.64900000    7.11800000   12.40500000
 C                  9.36600000    7.24600000   13.64100000
 C                  9.41700000    8.62900000   14.26900000
 O                 10.20400000    9.52000000   13.46600000
 H                 10.13800000    9.31500000   12.48900000
 C                  9.98500000    8.75200000   15.67400000
 O                 10.15800000   10.08600000   16.17400000
 H                 10.66700000   10.62800000   15.50500000
 C                  9.16100000    4.78000000   14.22400000
 O                  8.54200000    3.61200000   14.78200000
 H                  8.67400000    2.78500000   14.23500000
 C                  8.93200000    6.21500000   14.67100000
 O                  9.19900000    6.46900000   16.05800000
 C                  9.07000000    7.83700000   16.47200000
 O                  9.75500000    7.67000000   17.72200000
 C                  9.02600000    7.47700000   18.94300000
 C                  8.65600000    6.02400000   19.19100000
 O                  7.81500000    5.36700000   18.23200000
 H                  8.16300000    5.69600000   17.35400000
 C                  8.08600000    5.75300000   20.57400000
 O                  7.98800000    4.32900000   20.72200000
 H                  7.55000000    4.03700000   19.87100000
 C                 10.04900000    9.60900000   20.06000000
 O                 10.68900000   10.34600000   21.11100000
 H                 10.46900000   11.32200000   21.12600000
 C                  9.78800000    8.11200000   20.09500000
 O                  9.03800000    7.83200000   21.28600000
 C                  8.97900000    6.43300000   21.60000000
 O                  8.42000000    6.31100000   22.91600000
 H                  9.12894467    6.25124815   23.56053640
 H                  9.96052354    6.00769605   21.57493816
 H                  7.10497077    6.17590963   20.63424195
 H                  9.58507573    5.49424660   19.15814243
 H                  8.10719147    8.01640381   18.84433692
 H                 10.73326419    7.61697689   20.17454703
 H                  9.09678325   10.07309600   19.90900936
 H                  9.27302227    7.04285312   11.67936294
 H                 10.21524194    4.61598300   14.30507001
 H                  8.92747883    4.76094696   13.17996703
 H                 10.62566076    9.78942214   19.17693136
 H                  7.86590383    6.29814041   14.63322929
 H                 10.38119821    7.00518185   13.40376761
 H                  8.41665340    9.00809437   14.29122894
 H                 10.95386222    8.29801979   15.66360921
 H                  8.06117800    8.17920837   16.57235744

 1 2 1.0 37 1.0
 2 3 1.0 12 1.0 42 1.0
 3 4 1.0 6 1.0 43 1.0
 4 5 1.0
 5
 6 7 1.0 14 1.0 44 1.0
 7 8 1.0
 8
 9 10 1.0 12 1.0 38 1.0 39 1.0
 10 11 1.0
 11
 12 13 1.0 41 1.0
 13 14 1.0
 14 15 1.0 45 1.0
 15 16 1.0
 16 17 1.0 26 1.0 34 1.0
 17 18 1.0 20 1.0 33 1.0
 18 19 1.0
 19
 20 21 1.0 28 1.0 32 1.0
 21 22 1.0
 22
 23 24 1.0 26 1.0 36 1.0 40 1.0
 24 25 1.0
 25
 26 27 1.0 35 1.0
 27 28 1.0
 28 29 1.0 31 1.0
 29 30 1.0
 30
 31
 32
 33
 34
 35
 36
 37
 38
 39
 40
 41
 42
 43
 44
 45

