# freq=raman b3lyp/6-31+g(d,p) geom=connectivity

500 7000.com

0 1
 O                  9.60900000    5.69300000   22.47600000
 C                 10.28400000    5.91100000   23.72300000
 C                 10.16400000    7.33700000   24.23700000
 O                 10.86100000    8.11400000   23.25200000
 H                 10.61900000    7.89800000   22.30600000
 C                 10.73900000    7.50200000   25.63500000
 O                 10.92800000    8.90300000   25.88400000
 H                 11.19400000    9.26300000   24.99000000
 C                  9.48600000    3.59500000   24.38300000
 O                  8.71000000    2.65200000   25.13600000
 H                  8.62900000    1.73800000   24.73700000
 C                  9.57500000    5.06300000   24.76700000
 O                 10.21800000    5.16000000   26.04600000
 C                 10.08700000    6.49200000   26.56400000
 O                 11.00700000    6.32700000   27.65300000
 C                 10.25500000    6.01200000   28.83400000
 C                 10.38800000    4.63900000   29.47200000
 O                 10.66700000    3.55100000   28.58000000
 H                 10.53500000    3.77300000   27.61400000
 C                  9.43700000    4.38500000   30.63100000
 O                  9.55300000    2.96300000   30.77900000
 H                  9.64300000    2.72400000   29.81200000
 C                 10.17000000    8.40600000   29.74800000
 O                 10.83400000    9.19600000   30.74500000
 H                 10.46500000   10.12600000   30.71800000
 C                 10.46900000    6.94000000   30.01800000
 O                  9.72000000    6.56100000   31.18200000
 C                  9.94200000    5.26700000   31.76200000
 O                  9.19300000    5.16700000   32.98200000
 H                  9.79802024    5.10610973   33.72486128
 H                 10.98484925    5.10346565   31.93699129
 H                  8.43785354    4.65496117   30.35947223
 H                 11.32280955    4.73213813   29.98420738
 H                  9.22650971    6.11180241   28.55624615
 H                 11.50498498    6.87553085   30.27776690
 H                 10.53046158    8.67425491   28.77691465
 H                  9.11449723    8.57380179   29.79954082
 H                 10.25709314    5.57103898   21.77836056
 H                 10.48856721    3.22161853   24.36441857
 H                  9.11791516    3.56252750   23.37882915
 H                  8.57774750    5.43670226   24.87060532
 H                 11.31251676    5.62587198   23.64713641
 H                  9.13282312    7.62249337   24.24523235
 H                 11.74129160    7.13676726   25.55183397
 H                  9.09477497    6.74583781   26.87376743

 1 2 1.0 38 1.0
 2 3 1.0 12 1.0 42 1.0
 3 4 1.0 6 1.0 43 1.0
 4 5 1.0
 5
 6 7 1.0 14 1.0 44 1.0
 7 8 1.0
 8
 9 10 1.0 12 1.0 39 1.0 40 1.0
 10 11 1.0
 11
 12 13 1.0 41 1.0
 13 14 1.0
 14 15 1.0 45 1.0
 15 16 1.0
 16 17 1.0 26 1.0 34 1.0
 17 18 1.0 20 1.0 33 1.0
 18 19 1.0
 19
 20 21 1.0 28 1.0 32 1.0
 21 22 1.0
 22
 23 24 1.0 26 1.0 36 1.0 37 1.0
 24 25 1.0
 25
 26 27 1.0 35 1.0
 27 28 1.0
 28 29 1.0 31 1.0
 29 30 1.0
 30
 31
 32
 33
 34
 35
 36
 37
 38
 39
 40
 41
 42
 43
 44
 45

