# freq=raman b3lyp/6-31+g(d,p) geom=connectivity

550 7000.com

0 1
 O                  9.70400000    6.50200000   21.36600000
 C                 10.45800000    6.61100000   22.58300000
 C                 10.71800000    8.01200000   23.10900000
 O                 11.55900000    8.73900000   22.20300000
 H                 11.26800000    8.60400000   21.25600000
 C                 11.43200000    7.94500000   24.45000000
 O                 11.77400000    9.29400000   24.79900000
 H                 12.44500000    9.71900000   24.19200000
 C                  9.51800000    4.46900000   23.36700000
 O                  8.62200000    3.75300000   24.22800000
 H                  8.60000000    2.82000000   23.86700000
 C                  9.60100000    5.95900000   23.65600000
 O                 10.15900000    6.06400000   24.97400000
 C                 10.47800000    7.36800000   25.48300000
 O                 11.17300000    7.04400000   26.69600000
 C                 10.46200000    7.08000000   27.94200000
 C                 10.01700000    5.66200000   28.25900000
 O                  8.69700000    5.42500000   27.74800000
 H                  8.73900000    5.72700000   26.79500000
 C                 10.16400000    5.34300000   29.73800000
 O                 10.83000000    4.09400000   29.97100000
 H                 10.35800000    3.30900000   29.56900000
 C                 11.61000000    9.12400000   28.37600000
 O                 12.14200000   10.12500000   29.25700000
 H                 13.08600000    9.92200000   29.51600000
 C                 11.28400000    7.78200000   29.01000000
 O                 10.68400000    7.71300000   30.31100000
 C                 10.80800000    6.33500000   30.69300000
 O                  9.92800000    6.35700000   31.82700000
 H                 10.44694133    6.37266576   32.63449890
 H                 11.80853426    6.06756312   30.96190278
 H                  9.16423093    5.21195931   30.09603651
 H                 10.67639820    5.00362661   27.73303566
 H                  9.57805319    7.66329480   27.78933953
 H                 12.20998898    7.25084713   29.08294545
 H                 10.71399579    9.51030552   27.93685936
 H                 12.32117687    8.95790579   27.59398966
 H                 10.30620039    6.43530562   20.62134804
 H                 10.49641012    4.04824460   23.46985196
 H                  9.19496022    4.33687671   22.35552151
 H                  8.61946600    6.38483879   23.64365792
 H                 11.38280253    6.08155880   22.48639614
 H                  9.78794372    8.52816358   23.22506239
 H                 12.31309457    7.34251505   24.37527229
 H                  9.61102744    7.97425794   25.64334303

 1 2 1.0 38 1.0
 2 3 1.0 12 1.0 42 1.0
 3 4 1.0 6 1.0 43 1.0
 4 5 1.0
 5
 6 7 1.0 14 1.0 44 1.0
 7 8 1.0
 8
 9 10 1.0 12 1.0 39 1.0 40 1.0
 10 11 1.0
 11
 12 13 1.0 41 1.0
 13 14 1.0
 14 15 1.0 45 1.0
 15 16 1.0
 16 17 1.0 26 1.0 34 1.0
 17 18 1.0 20 1.0 33 1.0
 18 19 1.0
 19
 20 21 1.0 28 1.0 32 1.0
 21 22 1.0
 22
 23 24 1.0 26 1.0 36 1.0 37 1.0
 24 25 1.0
 25
 26 27 1.0 35 1.0
 27 28 1.0
 28 29 1.0 31 1.0
 29 30 1.0
 30
 31
 32
 33
 34
 35
 36
 37
 38
 39
 40
 41
 42
 43
 44
 45

