# freq=raman b3lyp/6-31+g(2d,p) geom=connectivity

493 8849/8849.com

0 1
C           8.14000         8.01700         2.94800
C           7.62000         9.36400         3.42500
O           7.79300        10.36900         2.41500
H           7.44500         9.95800         1.57200
C           8.16300         9.80900         4.77300
O           7.65700        11.06300         5.25100
H           8.20900        11.34500         6.03600
C           8.26800         5.51200         3.67600
O           7.70900         4.63400         2.68800
H           7.96400         3.69600         2.92100
C           7.89200         6.94900         4.00000
O           8.47800         7.35400         5.24600
C           7.98100         8.62100         5.70400
O           8.88400         8.83100         6.79900
C           8.30700         8.53100         8.07900
C           8.83300         7.22700         8.65400
O           8.49400         6.07000         7.87600
H           8.65900         6.30600         6.91800
C           8.26500         6.88900        10.02300
O           8.98200         5.76300        10.54900
H           8.55300         5.54700        11.42600
C           8.18200        11.03500         8.87600
O           8.60100        11.77200         7.71800
H           8.53600        12.73500         7.97800
C           8.62100         9.60000         9.11300
O           7.93600         9.26200        10.32800
C           8.42500         8.07200        10.96400
O           7.75700         7.85700        12.21600
C           8.35900         8.15200        13.48500
C           7.94400         9.53700        13.95500
O           8.26500        10.60200        13.04800
H           7.81900        10.27500        12.21500
C           8.46800         9.77300        15.36200
O           7.69400        10.85800        15.89300
H           8.12100        11.04300        16.77800
C           8.32900         5.68300        14.20600
O           8.24200         4.94000        12.98200
H           8.26200         3.94900        13.11800
C           7.90600         7.11400        14.49800
O           8.54300         7.28000        15.77300
C           8.19000         8.58100        16.26400
O           8.99600         8.84000        17.42300
C           8.34000         8.50700        18.65500
C           8.91600         7.19400        19.16100
O           8.62300         6.07800        18.30800
H           8.78400         6.47400        17.40400
C           8.45700         6.76300        20.54400
O           9.12500         5.60600        21.06900
H           8.84200         5.38900        22.00400
C           7.93000        10.86500        19.40600
O           8.49100        11.68500        18.37000
H           8.21900        12.63300        18.53200
C           8.62300         9.55000        19.72400
O           8.19300         9.14600        21.03300
C           8.73000         7.90400        21.51000
O           7.76400         7.86500        22.57000
C           8.36400         7.99500        23.86700
C           7.78500         9.28800        24.41700
O           7.95400        10.34100        23.45700
H           7.92200         9.88900        22.56600
C           8.39600         9.67200        25.75500
O           7.87200        10.85300        26.38000
H           8.35800        10.97000        27.24600
C           8.54100         5.49800        24.76300
O           8.39300         4.86600        23.48300
H           8.41700         3.89900        23.73400
C           7.97300         6.90500        24.85200
O           8.30100         7.24800        26.20700
C           7.99200         8.55700        26.70600
O           8.74100         8.69100        27.92300
C           8.16100         8.37300        29.19600
C           8.68300         7.02400        29.66500
O           8.47000         5.92500        28.76800
H           8.43900         6.28600        27.83600
C           8.13200         6.67500        31.03800
O           8.55600         5.45200        31.65800
H           8.03400         5.34800        32.50400
C           8.23700        10.87800        29.97900
O           8.65000        11.75200        28.91800
H           8.32400        12.69200        29.01200
C           8.67600         9.43400        30.15500
O           8.27600         9.12500        31.49800
C           8.50000         7.79800        31.99400
O           7.50900         7.89300        33.02700
C           8.10500         8.05200        34.32300
C           7.62700         9.32500        35.00200
O           7.92900        10.42400        34.13000
H           7.81300        10.11900        33.18500
C           8.13200         9.64500        36.39900
O           7.39100        10.69300        37.04200
H           7.88700        11.05500        37.83100
C           8.19800         5.51500        35.02600
O           7.55500         4.80400        33.95800
H           7.72900         3.82000        33.93500
C           7.78000         6.94700        35.31400
O           8.33300         7.22900        36.60800
C           7.89700         8.42400        37.27300
O           8.67600         8.50500        38.47600
C           7.92400         8.24800        39.67100
C           8.34300         6.88500        40.19800
O           7.92300         5.84700        39.30100
H           8.02200         6.15000        38.35300
C           7.86200         6.58800        -0.46200
O           8.66100         5.53300         0.09200
H           8.43400         5.38800         1.05500
C           7.91900        10.68800        40.54400
O           8.33000        11.44200        39.39400
H           7.95000        12.36500        39.46300
C           8.35000         9.24100        -1.32700
O           7.83400         8.98700        -0.01200
C           8.24300         7.70800         0.49300
O           7.51400         7.60600         1.72500
C           4.01300         4.38200         0.24400
C           4.45100         3.01400        42.80400
O           4.15000         2.06700        41.76900
H           4.40500         2.54300        40.92700
C           3.99100         2.69400         2.14600
O           4.42100         1.37000         2.49300
H           3.99400         1.01400         3.32500
C           3.79500         6.81800         1.00400
O           4.31000         7.52000        -0.13700
H           4.17700         8.49000         0.06900
C           4.36700         5.43700         1.28000
O           3.85100         5.07000         2.56800
C           4.27600         3.81900         3.12800
O           3.51200         3.72200         4.33900
C           4.22000         3.99900         5.55600
C           3.86400         5.34400         6.16800
O           4.10500         6.35800         5.18200
H           3.89100         5.93800         4.30000
C           4.37200         5.68600         7.55900
O           3.92000         6.93700         8.09700
H           4.29600         7.01400         9.02100
C           4.36400         1.61800         6.34300
O           3.82800         0.85500         5.25300
H           3.98400        -0.10100         5.50300
C           3.76700         2.99200         6.60100
O           4.32300         3.25500         7.89700
C           4.04500         4.53100         8.49100
O           4.85300         4.66700         9.66900
C           4.13700         4.32200        10.86400
C           4.45500         2.89200        11.27100
O           3.85100         2.02600        10.29900
H           4.13100         2.34700         9.39400
C           4.03400         2.41300        12.65000
O           4.69400         1.21200        13.07700
H           4.53700         0.99800        14.04100
C           3.83500         6.63300        11.92400
O           4.27900         7.28600        10.72600
H           4.23600         8.28300        10.79100
C           4.50000         5.26800        11.99800
O           3.95000         4.82300        13.24600
C           4.33800         3.50500        13.66200
O           3.56700         3.39100        14.86700
C           4.21800         3.75300        16.09300
C           3.76600         5.13400        16.53900
O           4.12100         6.15200        15.59200
H           3.72100         5.82100        14.73800
C           4.36600         5.42100        17.90600
O           4.07900         6.73600        18.40300
H           4.44400         6.85100        19.32700
C           4.14000         1.30500        16.84200
O           3.81700         0.63900        15.61300
H           3.86200        -0.34200        15.80300
C           3.76800         2.74800        17.14100
O           4.28800         3.03400        18.44700
C           4.06200         4.35900        18.95000
O           4.85000         4.51400        20.13900
C           4.21100         4.16900        21.37600
C           4.54300         2.77400        21.88200
O           4.28900         1.78700        20.87200
H           4.37500         2.16300        19.94900
C           3.95300         2.54800        23.26400
O           4.33200         1.24300        23.72700
H           4.08800         1.11900        24.68900
C           4.23800         6.66500        21.94000
O           4.65700         7.36000        20.75600
H           4.61600         8.35200        20.87700
C           4.67200         5.26100        22.32800
O           4.15700         4.90400        23.61900
C           4.53700         3.62900        24.15900
O           3.80700         3.48200        25.38500
C           4.49900         3.90500        26.56800
C           4.02400         5.23400        27.13400
O           4.02800         6.19200        26.06600
H           3.89100         5.75300        25.17800
C           4.75900         5.53800        28.43000
O           4.68500         6.88000        28.93000
H           5.06500         6.80400        29.85200
C           4.45400         1.47700        27.45400
O           3.90600         0.76500        26.33600
H           4.23600        -0.17900        26.30200
C           4.09600         2.93900        27.67000
O           4.73900         3.21400        28.92300
C           4.33300         4.48800        29.44400
O           5.04300         4.49000        30.69000
C           4.21600         4.19400        31.82600
C           4.39400         2.82800        32.46800
O           4.24100         1.81800        31.46000
H           4.57700         2.27800        30.63900
C           3.61400         2.66200        33.76200
O           4.02300         1.37500        34.25000
H           3.76800         1.26000        35.21000
C           4.13900         6.72900        32.54000
O           4.88600         7.44800        31.54800
H           4.77200         8.43200        31.68200
C           4.40700         5.27200        32.88000
O           3.67900         5.05300        34.09700
C           4.02600         3.79300        34.69000
O           3.36600         3.73100        35.96300
C           4.13900         4.05600        37.12700
C           3.80600         5.44900        37.63800
O           4.03500         6.46400        36.65000
H           3.77300         6.07200        35.76800
C           4.33200         5.81800        39.01500
O           3.70200         6.99600        39.53900
H           4.12000         7.23400        40.41600
C           4.22800         1.57200        37.95800
O           3.67500         0.86500        36.83900
H           4.07900        -0.04900        36.87000
C           3.70800         2.99100        38.12200
O           4.27400         3.31700        39.40000
C           3.94800         4.62900        39.88100
O           4.69000         4.74200        41.10400
C           7.97100        16.04400         2.94800
C           7.62900        17.42700         3.47700
O           8.02600        18.36200         2.46300
H           7.71000        18.01400         1.58100
C           8.07300        17.92500         4.84300
O           7.68600        19.19700         5.38400
H           8.00600        19.27700         6.32800
C           8.25100        13.74200         3.91800
O           7.81800        13.07700         2.72200
H           7.80700        12.11000         2.97300
C           7.64700        15.12300         4.11400
O           8.21100        15.60900         5.34000
C           7.73600        16.85600         5.86900
O           8.58900        17.14600         6.98500
C           8.18600        16.61700         8.25600
C           8.86400        15.39500         8.85500
O           8.79600        14.35700         7.86700
H           9.22800        14.79300         7.07800
C           8.19000        14.93400        10.13700
O           8.75900        13.73000        10.67100
H           8.22900        13.44300        11.46900
C           7.42900        18.89300         8.94300
O           8.05100        19.73800         7.96500
H           8.04100        20.69200         8.26600
C           8.24100        17.67400         9.34800
O           7.70000        17.29400        10.62100
C           8.19700        16.05900        11.15900
O           7.21600        15.85600        12.18600
C           7.71300        16.24800        13.47400
C           7.10000        17.55200        13.95900
O           7.16800        18.57000        12.95000
H           7.14400        18.07400        12.08100
C           7.79100        17.93000        15.25900
O           7.24200        19.10100        15.88200
H           7.43000        19.08300        16.86400
C           8.12000        13.84600        14.19600
O           7.71400        13.13400        13.01800
H           8.08700        12.21300        13.12500
C           7.40100        15.15400        14.48200
O           7.85800        15.56000        15.78000
C           7.49600        16.85200        16.28900
O           8.30000        17.06000        17.45900
C           7.82200        16.67800        18.75700
C           8.27500        15.29700        19.20000
O           7.92900        14.24700        18.28500
H           7.99300        14.54400        17.33300
C           7.72500        15.01400        20.58900
O           8.18700        13.83700        21.26700
H           7.69700        13.67400        22.12400
C           7.54900        19.10300        19.61600
O           8.10400        19.74500        18.46000
H           8.10100        20.71800        18.69100
C           8.11200        17.70800        19.83700
O           7.42200        17.42600        21.06300
C           7.90700        16.17000        21.55900
O           7.25500        15.90000        22.80800
C           7.97200        16.31500        23.98000
C           7.41100        17.63600        24.48100
O           7.56200        18.68600        23.51500
H           7.42800        18.31600        22.59600
C           8.03000        17.94800        25.83300
O           7.53300        19.24700        26.18400
H           7.97800        19.54100        27.03000
C           7.98700        13.82700        24.74700
O           7.56900        13.14400        23.55600
H           7.90200        12.20300        23.61700
C           7.59500        15.27000        25.01800
O           8.18300        15.54900        26.29700
C           7.70100        16.80900        26.78500
O           8.39100        16.89300        28.04000
C           7.60800        16.62700        29.21200
C           8.25200        15.34600        29.71500
O           8.10100        14.35400        28.68900
H           8.58500        14.72600        27.89700
C           7.84100        14.96900        31.12900
O           8.44700        13.74200        31.56000
H           7.95000        13.41300        32.36300
C           7.44200        19.08800        30.15500
O           7.90900        19.82700        29.01700
H           7.74000        20.79400        29.20600
C           7.93400        17.65500        30.28300
O           7.43100        17.23000        31.55800
C           7.99400        16.06200        32.17400
O           7.14200        15.88400        33.31400
C           7.81300        16.18100        34.54700
C           7.23800        17.48600        35.07400
O           7.45200        18.50300        34.08600
H           7.20800        18.08900        33.20900
C           7.83400        17.81700        36.43300
O           7.14100        18.96900        36.93500
H           7.52100        19.17900        37.83600
C           8.16500        13.78100        35.08600
O           7.59200        12.95300        34.06400
H           7.88900        12.01700        34.25300
C           7.54300        15.08300        35.56300
O           8.30900        15.42000        36.72900
C           7.68400        16.57800        37.30100
O           8.35900        16.72200        38.55900
C           7.72700        16.46100        39.82100
C           8.26700        15.11700        40.28400
O           8.18400        14.06600        39.31000
H           8.66000        14.33900        38.47400
C           7.74100        14.76800        -0.40500
O           8.43200        13.59700         0.05300
H           8.26800        13.49000         1.03400
C           7.87800        18.95800        40.55500
O           8.21700        19.64000        39.33800
H           8.13000        20.62500        39.48900
C           8.10100        17.48800        -1.19000
O           7.44900        17.14100         0.04100
C           7.96100        15.91100         0.57300
O           7.23400        15.64900         1.78200
C           3.77300        12.55900         0.16800
C           4.04600        11.14300        42.71300
O           3.67700        10.26900        41.63600
H           4.06900        10.73200        40.84200
C           3.54100        10.68000         1.99900
O           3.91700         9.37300         2.45600
H           3.88200         9.39500         3.45500
C           3.66200        14.89800         1.06900
O           4.24800        15.52100        -0.08300
H           4.08300        16.50100         0.02800
C           4.05500        13.45900         1.36000
O           3.49700        13.05400         2.61800
C           3.94400        11.74600         3.00400
O           3.39000        11.49200         4.30300
C           4.07300        11.86400         5.51000
C           3.75600        13.26000         6.02000
O           4.21300        14.22100         5.05700
H           4.03100        13.85700         4.14400
C           4.37000        13.54600         7.38100
O           4.04800        14.86000         7.85900
H           4.44200        15.06100         8.75600
C           4.30200         9.45600         6.36100
O           4.20400         8.92600         5.03100
H           4.38100         7.94400         5.10500
C           3.77300        10.85900         6.60900
O           4.35400        11.23400         7.86600
C           3.96300        12.50300         8.41100
O           4.65100        12.60000         9.66600
C           3.90900        12.30700        10.85900
C           4.40300        10.95700        11.35400
O           4.17400         9.94200        10.36600
H           4.32000        10.40900         9.49300
C           3.84900        10.64700        12.73500
O           4.40700         9.48100        13.35700
H           4.06500         9.37200        14.29100
C           3.79800        14.81700        11.62900
O           4.39100        15.63200        10.60700
H           4.05800        16.57500        10.62800
C           4.12200        13.36300        11.93100
O           3.49500        13.00000        13.17000
C           4.09900        11.80500        13.68800
O           3.33000        11.66900        14.89200
C           4.06500        11.90400        16.10200
C           3.71600        13.31600        16.54300
O           4.32600        14.26300        15.65500
H           4.04900        14.06400        14.71500
C           4.36200        13.63500        17.88100
O           3.96700        14.94500        18.31400
H           4.26500        15.04200        19.26400
C           3.98600         9.54800        16.86000
O           3.61500         8.67900        15.78000
H           3.80100         7.75600        16.11700
C           3.58700        10.97300        17.20500
O           4.32200        11.23800        18.40900
C           3.93400        12.54600        18.85200
O           4.68400        12.64300        20.07200
C           3.97500        12.33500        21.28100
C           4.37700        10.99700        21.87700
O           4.17600         9.95300        20.91300
H           4.21500        10.44000        20.04100
C           3.76800        10.65700        23.22800
O           4.41500         9.46000        23.68500
H           4.15500         9.39600        24.64900
C           3.88700        14.79900        21.98300
O           4.38000        15.55700        20.86900
H           4.17700        16.52400        21.02600
C           4.27100        13.37400        22.35000
O           3.55100        13.04500        23.54700
C           4.07900        11.84300        24.12700
O           3.41300        11.78900        25.39600
C           4.21300        12.14100        26.53500
C           3.65700        13.49100        26.95600
O           3.98600        14.43400        25.92600
H           3.54700        14.09000        25.09500
C           4.13100        13.84300        28.35700
O           3.62700        15.10600        28.81600
H           3.84200        15.17200        29.79000
C           4.21200         9.70900        27.34900
O           3.58600         8.95300        26.30200
H           3.73900         7.99500        26.54400
C           3.96800        11.17200        27.68000
O           4.62700        11.59500        28.88300
C           3.90000        12.73200        29.36900
O           4.62500        12.93100        30.59200
C           3.97200        12.49900        31.79400
C           4.36100        11.16400        32.40900
O           4.34300        10.09900        31.44700
H           4.23700        10.54300        30.55700
C           3.69600        10.84400        33.73700
O           3.91400         9.47200        34.09500
H           3.38100         9.24500        34.91100
C           3.73100        14.91700        32.55100
O           4.13900        15.71800        31.43200
H           4.00100        16.69300        31.60700
C           4.29300        13.53800        32.85600
O           3.63100        13.24800        34.09500
C           4.03200        11.99600        34.67000
O           3.26900        12.01600        35.88500
C           4.00100        12.23300        37.09900
C           3.58700        13.56800        37.69700
O           3.79600        14.51100        36.63600
H           3.67900        14.06900        35.74700
C           4.17000        14.01400        39.02900
O           3.55900        15.15000        39.65600
H           3.94100        15.12600        40.58000
C           4.02300         9.77100        37.92000
O           3.40700         9.20400        36.75500
H           3.66100         8.23700        36.73000
C           3.78300        11.24000        38.22900
O           4.58300        11.64500        39.35000
C           3.95400        12.80200        39.92000
O           4.66600        12.87800        41.16400
C           7.61600        24.21500         3.05600
C           7.22000        25.58400         3.58300
O           7.49100        26.64000         2.64900
H           7.22400        26.24400         1.77100
C           7.96300        25.92500         4.86400
O           7.64200        27.20300         5.43300
H           8.08100        27.33300         6.32200
C           7.87400        21.79900         3.87600
O           7.53600        21.04800         2.70100
H           7.81200        20.09300         2.81300
C           7.23800        23.16300         4.08700
O           7.82900        23.51000         5.34800
C           7.63400        24.83300         5.86800
O           8.30000        25.22100         7.07800
C           7.72900        24.82500         8.33400
C           8.26900        23.48800         8.81600
O           8.03800        22.46500         7.83600
H           8.25100        22.79200         6.91600
C           7.79000        23.13900        10.21600
O           8.57600        22.05700        10.73700
H           8.13800        21.76400        11.58700
C           7.37200        27.24600         9.02800
O           8.00400        27.99400         7.98000
H           7.71100        28.94800         8.03500
C           7.94900        25.88900         9.39700
O           7.30800        25.54500        10.63400
C           7.90400        24.34100        11.13900
O           7.20700        24.00900        12.34800
C           7.95100        24.25500        13.55000
C           7.37900        25.59500        13.98200
O           7.74900        26.68700        13.12700
H           7.54600        26.37200        12.20000
C           7.84200        25.92000        15.39300
O           7.04100        26.99400        15.90800
H           7.48200        27.43900        16.68700
C           8.22700        21.77900        14.23000
O           7.65800        21.28000        13.01100
H           7.51100        20.29900        13.13300
C           7.78400        23.18200        14.61300
O           8.37500        23.59100        15.85500
C           7.73000        24.76300        16.37200
O           8.45900        25.07600        17.56800
C           7.83000        24.78500        18.82500
C           8.37200        23.44300        19.29000
O           8.10900        22.37500        18.36900
H           8.16400        22.74100        17.44000
C           7.91700        23.03700        20.68300
O           8.46700        21.78600        21.12000
H           8.15100        21.60800        22.05100
C           7.70600        27.18500        19.46700
O           8.08800        27.92300        18.29700
H           7.67800        28.81500        18.48900
C           8.24500        25.81900        19.85900
O           7.78200        25.46700        21.17100
C           8.17000        24.17400        21.65900
O           7.38600        24.06900        22.85600
C           8.00500        24.34700        24.12100
C           7.52200        25.66900        24.69400
O           7.51000        26.72000        23.71700
H           7.22100        26.30900        22.85200
C           8.12100        26.00800        26.04900
O           7.62700        27.27200        26.51600
H           7.99900        27.47800        27.42100
C           8.27800        21.95800        24.75100
O           7.77400        21.22900        23.62300
H           7.65800        20.25100        23.79800
C           7.68500        23.29400        25.16900
O           8.17200        23.62400        26.47800
C           7.82500        24.89700        27.04200
O           8.67200        24.91200        28.20000
C           8.04600        24.84000        29.49000
C           8.39300        23.42500        29.92100
O           7.93400        22.40900        29.01700
H           8.20800        22.62200        28.07900
C           7.88900        23.11000        31.31900
O           8.42500        21.84400        31.73000
H           8.01500        21.57400        32.60100
C           8.21700        27.25100        30.29800
O           8.68200        27.96000        29.14000
H           8.26700        28.87000        29.17300
C           8.52800        25.78900        30.57500
O           7.92600        25.47800        31.84000
C           8.25000        24.17400        32.34300
O           7.31500        24.14900        33.43100
C           7.98000        24.40800        34.67600
C           7.39500        25.68700        35.25200
O           7.65600        26.75900        34.33500
H           7.49800        26.30000        33.46100
C           7.90500        26.04300        36.63900
O           7.25900        27.26300        37.03000
H           7.38800        27.37100        38.01600
C           8.22400        21.96700        35.47500
O           7.65300        21.28600        34.34700
H           7.86900        20.31000        34.36400
C           7.62000        23.34300        35.69900
O           8.22200        23.62500        36.97000
C           7.64800        24.82400        37.51000
O           8.49800        24.91400        38.66200
C           7.90000        24.65300        39.94100
C           8.48600        23.33900        40.43000
O           8.32800        22.27900        39.47600
H           8.75900        22.62500        38.64200
C           7.81600        22.97700        -0.32600
O           8.39300        21.77600         0.20700
H           7.93300        21.49100         1.04800
C           7.77500        27.17200        40.62400
O           8.12500        27.84100        39.40300
H           8.00000        28.83100        39.46800
C           8.25600        25.75900        -1.14700
O           7.73200        25.44300         0.15100
C           7.95900        24.12200         0.66400
O           7.08500        23.85900         1.77100
C           3.77500        20.69300         0.25500
C           4.06500        19.24200        42.66400
O           3.49100        18.43300        41.62700
H           3.69500        18.85000        40.74100
C           3.53100        18.93800         1.98300
O           3.77000        17.58100         2.38200
H           3.40000        17.30700         3.27000
C           3.71800        23.12700         1.16200
O           4.17900        23.86100         0.01800
H           3.96300        24.83500         0.08400
C           4.10600        21.67200         1.36900
O           3.45200        21.26500         2.58000
C           3.93100        19.98300         3.01200
O           3.20800        19.72400         4.22400
C           3.77100        20.09400         5.49100