# freq=raman b3lyp/6-31+g(2d,p) geom=connectivity

493 5000/5000.com

0 1
 O                  7.86700000    7.55100000   12.44300000
 C                  8.25200000    7.95300000   13.76500000
 C                  7.69900000    9.29400000   14.21800000
 O                  7.85200000   10.32100000   13.22700000
 H                  7.87200000    9.82700000   12.35800000
 C                  8.37500000    9.70600000   15.51600000
 O                  7.93600000   10.97100000   16.03000000
 H                  8.37800000   11.12900000   16.91200000
 C                  8.08000000    5.47900000   14.43900000
 O                  7.59600000    4.90600000   13.21600000
 H                  7.78100000    3.92400000   13.17400000
 C                  7.79600000    6.93000000   14.79300000
 O                  8.31700000    7.28900000   16.08100000
 C                  8.07800000    8.62600000   16.54300000
 O                  8.88000000    8.84400000   17.71300000
 C                  8.25500000    8.35300000   18.90800000
 C                  8.69300000    6.95600000   19.31700000
 O                  8.30600000    5.95600000   18.36300000
 H                  8.64000000    6.24400000   17.46600000
 C                  8.25500000    6.52700000   20.70800000
 O                  8.87500000    5.36100000   21.27000000
 H                  8.42300000    5.02300000   22.09500000
 C                  8.05300000   10.76400000   19.62900000
 O                  8.69600000   11.46300000   18.55300000
 H                  8.59300000   12.45400000   18.64100000
 C                  8.56400000    9.37800000   19.98700000
 O                  7.93000000    9.03500000   21.22800000
 C                  8.34200000    7.72400000   21.64100000
 O                  7.43700000    7.50100000   22.73200000
 H                  7.93756461    7.33695429   23.53457341
 H                  9.33840011    7.78424651   22.02630142
 H                  7.21466877    6.29056129   20.62609960
 H                  9.76288353    6.96783746   19.32744557
 H                  7.19663582    8.33862388   18.75128817
 H                  9.62281678    9.42225876   20.13481136
 H                  8.13070501   11.37434168   20.50441131
 H                  7.69224599    4.88182394   15.23770369
 H                  9.14344196    5.36071563   14.43902520
 H                  6.73188890    7.02078317   14.85877212
 H                  8.65299602    7.39064166   11.91565243
 H                  9.32020798    8.00570274   13.79746742
 H                  6.65357491    9.17333916   14.41146149
 H                  9.43203453    9.74806407   15.35534937
 H                  7.04807393    8.70443818   16.82228433
 H                  7.01564732   10.67352575   19.38280125

 1 2 1.0 40 1.0
 2 3 1.0 12 1.0 41 1.0
 3 4 1.0 6 1.0 42 1.0
 4 5 1.0
 5
 6 7 1.0 14 1.0 43 1.0
 7 8 1.0
 8
 9 10 1.0 12 1.0 37 1.0 38 1.0
 10 11 1.0
 11
 12 13 1.0 39 1.0
 13 14 1.0
 14 15 1.0 44 1.0
 15 16 1.0
 16 17 1.0 26 1.0 34 1.0
 17 18 1.0 20 1.0 33 1.0
 18 19 1.0
 19
 20 21 1.0 28 1.0 32 1.0
 21 22 1.0
 22
 23 24 1.0 26 1.0 36 1.0 45 1.0
 24 25 1.0
 25
 26 27 1.0 35 1.0
 27 28 1.0
 28 29 1.0 31 1.0
 29 30 1.0
 30
 31
 32
 33
 34
 35
 36
 37
 38
 39
 40
 41
 42
 43
 44
 45

