# freq=raman b3lyp/6-31+g(2d,p) geom=connectivity

290 8885/8885.com

0 1
C           8.34800         7.97800         3.00800
C           7.87500         9.31900         3.54400
O           8.35400        10.41700         2.75400
H           8.30400        10.20400         1.77800
C           8.42500         9.60900         4.93100
O           7.74400        10.71500         5.54100
H           8.15000        11.09400         6.37300
C           8.43700         5.54100         3.77500
O           7.93700         5.03200         2.53100
H           7.93800         4.05400         2.74100
C           8.02300         6.96800         4.09600
O           8.75200         7.25700         5.29800
C           8.25200         8.45700         5.90700
O           9.18300         8.61500         6.98700
C           8.56200         8.45300         8.27100
C           9.09100         7.09500         8.70300
O           8.70700         6.05300         7.79500
H           8.84200         6.40000         6.86700
C           8.66800         6.80100        10.13300
O           9.28100         5.59300        10.60800
H           9.12700         5.50500        11.59200
C           8.54400        10.92200         8.90500
O           8.86700        11.66100         7.71800
H           8.80400        12.64100         7.90700
C           9.07300         9.53100         9.21300
O           8.70800         9.24200        10.57000
C           9.08900         7.94200        11.04400
O           8.21900         7.82800        12.18000
C           8.54700         8.17000        13.53400
C           7.89900         9.48800        13.92600
O           8.23900        10.55700        13.03200
H           8.34600        10.14400        12.12700
C           8.29900         9.86600        15.34300
O           7.69700        11.07100        15.84000
H           7.86600        11.12000        16.82500
C           8.60700         5.70300        14.23900
O           8.21300         5.11700        12.99000
H           7.95900         4.15400        13.07700
C           8.08900         7.10500        14.51700
O           8.47400         7.44100        15.85800
C           7.97000         8.71600        16.28100
O           8.77600         8.87300        17.45800
C           8.21500         8.38800        18.68700
C           8.92800         7.11600        19.11900
O           8.66600         6.03600        18.21200
H           8.94100         6.32400        17.29500
C           8.59900         6.64900        20.52800
O           9.12300         5.41700        21.04600
H           8.62200         5.17100        21.87500
C           7.69500        10.66500        19.55300
O           8.30300        11.53200        18.58500
H           8.17800        12.48500        18.86000
C           8.51900         9.40700        19.77300
O           8.11400         8.92400        21.06200
C           8.82700         7.76900        21.52900
O           7.98500         7.47700        22.65300
C           8.36300         7.89400        23.97300
C           7.70300         9.16300        24.48400
O           7.71200        10.17600        23.46700
H           7.63400         9.66600        22.61000
C           8.38600         9.66200        25.74700
O           7.86200        10.92400        26.18500
H           8.14800        10.91700        27.14300
C           8.64300         5.48000        24.60700
O           8.08100         4.70200        23.54100
H           8.13400         3.73500        23.78800
C           8.18400         6.85400        25.06800
O           8.74600         7.32800        26.30000
C           8.25100         8.57700        26.80300
O           9.01300         8.94500        27.96200
C           8.38500         8.55200        29.19100
C           8.84200         7.21800        29.76000
O           8.58700         6.17500        28.80900
H           8.97400         6.48200        27.94000
C           8.48300         6.70700        31.14600
O           9.20200         5.54700        31.58900
H           8.77700         5.31000        32.46300
C           7.84900        10.84700        29.91900
O           8.16500        11.49900        28.68100
H           8.26700        12.46200        28.92900
C           8.60800         9.58200        30.28600
O           8.16000         9.13800        31.57500
C           8.73700         7.90900        32.04000
O           7.88200         7.82700        33.19000
C           8.39900         8.18100        34.48100
C           7.83000         9.51700        34.93300
O           8.04000        10.47600        33.88700
H           8.00800         9.99400        33.01200
C           8.08700         9.92900        36.37300
O           7.51100        11.13900        36.88700
H           7.83000        11.36200        37.80800
C           8.24000         5.73300        35.28600
O           7.75600         5.03100        34.13200
H           7.81000         4.05800        34.35800
C           7.82500         7.18300        35.47400
O           8.34500         7.55000        36.76000
C           7.75700         8.75200        37.27700
O           8.50300         8.96000        38.48500
C           8.17700         8.52300        39.81200
C           8.67300         7.13400        40.18300
O           8.44300         6.16600        39.14900
H           8.49600         6.66500        38.28300
C           8.19200         6.80600        -0.47900
O           8.75600         5.54800        -0.07800
H           8.31600         5.35300         0.79800
C           8.55900        10.88500        40.65100
O           8.37000        11.66600        39.46200
H           8.38000        12.64700        39.65500
C           8.89400         9.41000        -1.25100
O           8.44100         9.18200         0.09100
C           8.64900         7.83500         0.54100
O           7.82100         7.69100         1.70400
C           4.09500         4.34700         0.30100
C           4.32300         2.92700        42.85400
O           4.08700         1.96800        41.81200
H           4.46700         2.37200        40.98000
C           3.67900         2.70400         2.14600
O           4.21600         1.46800         2.63800
H           3.79700         1.33400         3.53600
C           4.12700         6.74800         1.03200
O           4.51100         7.51400        -0.11900
H           4.35400         8.47900         0.09100
C           4.61900         5.34100         1.32500
O           4.12600         5.13500         2.65700
C           4.19300         3.77100         3.09900
O           3.37300         3.74700         4.27600
C           4.04200         3.83700         5.54200
C           3.74700         5.21300         6.11700
O           4.25200         6.22200         5.23000
H           4.19200         5.84500         4.30600
C           4.27500         5.48200         7.51700
O           3.86400         6.77200         7.99500
H           4.44100         6.97100         8.78600
C           3.94600         1.40700         6.23000
O           3.28500         0.71200         5.16300
H           3.44100        -0.26900         5.27800
C           3.68200         2.84700         6.63900
O           4.40000         3.18400         7.83400
C           3.87700         4.36200         8.46400
O           4.80000         4.56400         9.54400
C           4.35200         4.27700        10.87600
C           4.44700         2.88000        11.46900
O           3.82700         1.94500        10.57500
H           3.92300         2.18100         9.60800
C           3.81900         2.72200        12.84400
O           4.08400         1.41000        13.36200
H           3.92100         1.35400        14.34700
C           4.57400         6.63200        11.53500
O           4.90200         7.28800        10.30200
H           4.75200         8.23900        10.57500
C           4.87600         5.20500        11.96000
O           4.22800         5.11900        13.23800
C           4.36600         3.79400        13.77200
O           3.53600         3.81600        14.94200
C           4.32000         4.06100        16.11900
C           4.03300         5.45700        16.64800
O           4.63800         6.37000        15.72200
H           4.31200         6.06900        14.82600
C           4.60500         5.73000        18.03000
O           4.19400         6.96400        18.63500
H           4.32100         6.90200        19.62500
C           4.36200         1.64500        16.92800
O           3.89300         0.88400        15.80600
H           4.02900        -0.10300        15.88700
C           3.94000         3.07700        17.21300
O           4.74100         3.38200        18.36400
C           4.25300         4.58800        18.97000
O           5.06600         4.73200        20.14400
C           4.52100         4.38000        21.42400
C           4.75200         2.93900        21.84700
O           4.43000         1.98800        20.82100
H           4.76100         2.51400        20.03700
C           3.98800         2.68100        23.13600
O           4.25000         1.32700        23.53500
H           4.02700         1.34200        24.51000
C           4.36900         6.74300        22.33200
O           4.91100         7.45900        21.21300
H           4.69400         8.42100        21.37800
C           4.82500         5.31500        22.58300
O           4.11900         5.05800        23.80600
C           4.45400         3.70700        24.15600
O           3.72400         3.58900        25.38600
C           4.38500         3.87900        26.62600
C           4.11400         5.28100        27.14800
O           4.24600         6.25400        26.10100
H           4.07500         5.96900        25.15800
C           4.78400         5.56900        28.48100
O           4.68300         6.96200        28.81300
H           4.94700         7.19900        29.74800
C           4.31200         1.56700        27.42700
O           3.80500         0.76200        26.35200
H           4.03800        -0.20500        26.45700
C           3.82600         2.97800        27.71500
O           4.33300         3.24300        29.03100
C           4.23300         4.59300        29.50800
O           4.95900         4.52200        30.74400
C           4.10700         4.40800        31.89300
C           4.30300         3.03600        32.51900
O           4.10000         1.98700        31.56000
H           4.22200         2.33400        30.63000
C           3.50200         2.84800        33.79700
O           3.96200         1.58100        34.29000
H           3.61500         1.40400        35.21000
C           4.10000         6.82900        32.53400
O           4.64100         7.56600        31.42800
H           4.36200         8.51300        31.58700
C           4.53200         5.42800        32.93700
O           3.85900         5.19300        34.18200
C           4.04900         3.89200        34.75800
O           3.23400         3.87900        35.93900
C           4.04300         3.99800        37.11800
C           3.95400         5.40000        37.69900
O           4.25800         6.41700        36.73400
H           3.65600         6.22200        35.96000
C           4.69400         5.57700        39.01500
O           4.53400         6.94100        39.43100
H           4.41600         7.03500        40.42000
C           4.12700         1.64000        37.85400
O           3.45300         0.90800        36.82000
H           3.78100        -0.02900        36.93500
C           3.63600         3.03200        38.21800
O           4.37700         3.21100        39.43400
C           4.18600         4.52300        39.98400
O           4.93300         4.47600        41.20900
C           8.10500        16.26100         3.03800
C           7.49600        17.54600         3.57400
O           7.58400        18.50000         2.50600
H           7.54600        18.10900         1.58700
C           8.01000        18.04600         4.91400
O           7.21300        19.15300         5.35900
H           7.58200        19.54500         6.20100
C           8.63600        13.98500         3.82300
O           7.96000        13.07900         2.93900
H           7.88300        12.20500         3.41800
C           7.92600        15.28000         4.18500
O           8.42300        15.71200         5.46000
C           7.80300        16.92300         5.91800
O           8.63800        17.19600         7.05200
C           8.07300        16.73300         8.28800
C           8.74300        15.46600         8.79400
O           8.67500        14.46100         7.77100
H           8.86500        14.95300         6.92100
C           8.12100        15.03000        10.11000
O           8.61000        13.79400        10.65100
H           8.26400        13.63000        11.57400
C           7.59700        19.15400         9.11500
O           8.04500        19.83600         7.93500
H           7.98000        20.81400         8.13600
C           8.26500        17.80800         9.34500
O           7.79300        17.32600        10.61100
C           8.35400        16.11700        11.14600
O           7.56200        15.75200        12.28500
C           8.15200        16.21600        13.50800
C           7.62700        17.59200        13.88400
O           7.76700        18.61800        12.89100
H           7.41900        18.11400        12.10100
C           8.10200        17.88900        15.29800
O           7.50300        19.04600        15.90000
H           8.01000        19.19400        16.74900
C           8.48000        13.79600        14.28600
O           8.19400        13.07200        13.08100
H           8.16800        12.08200        13.21800
C           7.90100        15.17000        14.58200
O           8.53500        15.60600        15.79300
C           7.89500        16.77900        16.31500
O           8.63700        17.00000        17.52300
C           8.06600        16.69500        18.80400
C           8.66300        15.37300        19.25700
O           8.24000        14.26100        18.45400
H           8.28600        14.50100        17.48500
C           8.26300        15.01100        20.67800
O           8.84800        13.81900        21.22200
H           8.34700        13.54200        22.04300
C           7.71300        18.98200        19.53500
O           8.22600        19.77800        18.45700
H           7.99200        20.74700        18.53400
C           8.45400        17.70000        19.87700
O           7.97400        17.35700        21.18600
C           8.57900        16.14000        21.64600
O           7.56700        15.94000        22.64300
C           8.01300        16.31700        23.95300
C           7.37600        17.62900        24.38100
O           7.75500        18.71500        23.52300
H           7.69000        18.31800        22.60800
C           7.72200        17.89400        25.83800
O           6.92700        18.98200        26.33200
H           7.32300        19.24600        27.21100
C           8.00700        13.79000        24.73500
O           7.58700        12.89400        23.69600
H           7.65900        11.93900        23.98400
C           7.61300        15.24200        24.95000
O           8.10100        15.56300        26.26100
C           7.52700        16.75300        26.82200
O           8.23500        17.10500        28.01900
C           7.67300        16.71100        29.28000
C           8.49800        15.50300        29.69300
O           8.52900        14.37700        28.80400
H           8.86000        14.61600        27.89100
C           7.90600        15.04800        31.01700
O           8.64100        13.93900        31.55300
H           8.43500        13.84400        32.52700
C           7.25700        19.24100        29.95700
O           7.79800        19.87300        28.78800
H           7.79700        20.86800        28.88900
C           7.78900        17.85400        30.27600
O           7.34200        17.37100        31.55100
C           8.01100        16.19000        32.01500
O           7.37500        15.83200        33.25000
C           7.94300        16.24200        34.50300
C           7.32900        17.54100        35.00000
O           7.45900        18.61600        34.05800
H           7.26300        18.11000        33.21800
C           7.83200        17.86700        36.39600
O           7.09900        18.98000        36.92800
H           7.50800        19.22100        37.80800
C           8.45500        13.92700        35.35700
O           8.30900        13.31000        34.06900
H           8.17000        12.32300        34.15700
C           7.68500        15.21600        35.59400
O           8.21700        15.55300        36.88300
C           7.66200        16.76100        37.42500
O           8.40400        17.01100        38.62700
C           7.84600        16.59000        39.88000
C           8.62800        15.38400        40.37600
O           8.61300        14.34400        39.38800
H           8.74300        14.69300        38.46000
C           8.16300        14.91100        -0.32200
O           8.74900        13.70800         0.19500
H           8.27300        13.40300         1.02100
C           7.35300        18.99400        40.61100
O           7.90800        19.73600        39.51500
H           7.77300        20.72500        39.56900
C           8.08100        17.69000        -1.16700
O           7.59800        17.24200         0.10800
C           8.28000        16.09200         0.62800
O           7.49900        15.84600         1.80600
C           3.95000        12.59300         0.48500
C           4.25300        11.17300        42.99500
O           3.88100        10.20400        42.00300
H           4.21200        10.44100        41.09000
C           3.54700        10.90300         2.24800
O           3.81000         9.55500         2.66100
H           3.66100         9.53300         3.65000
C           3.88300        14.94600         1.34300
O           4.51000        15.72000         0.31000
H           4.23200        16.66700         0.47600
C           4.36900        13.53000         1.60600
O           3.84600        13.24800         2.91200
C           4.13800        11.88400         3.24800
O           3.31800        11.70900         4.41300
C           3.94800        12.06700         5.65100
C           3.83100        13.49000         6.17100
O           4.17700        14.47900         5.19000
H           3.91900        14.06700         4.31600
C           4.57500        13.65900         7.48600
O           4.09100        14.91800         7.97600
H           4.37900        15.11700         8.91200
C           3.99200         9.59700         6.46900
O           3.38800         8.87200         5.38800
H           3.47500         7.88600         5.53100
C           3.58400        11.04100         6.71200
O           4.18800        11.30000         7.98800
C           4.06100        12.63900         8.48900
O           4.79800        12.67700         9.71900
C           4.02200        12.37700        10.88800
C           4.38900        10.95700        11.28600
O           3.94100         9.96100        10.35500
H           4.04000        10.29600         9.41800
C           3.94200        10.68700        12.71300
O           4.50800         9.47400        13.23000
H           4.14400         9.34700        14.15300
C           4.02800        14.83800        11.73000
O           4.36000        15.59700        10.55700
H           3.98300        16.51400        10.68600
C           4.47100        13.39700        11.92200
O           3.88900        13.12200        13.20400
C           4.25800        11.81900        13.67800
O           3.57200        11.55900        14.91100
C           4.25200        11.85800        16.13900
C           3.92900        13.26900        16.60200
O           4.32500        14.32400        15.71400
H           4.11400        14.09600        14.76300
C           4.46300        13.62300        17.98100
O           4.01400        14.89500        18.47200
H           4.19500        14.90300        19.45600
C           4.17300         9.55200        16.95200
O           3.95400         8.81100        15.74300
H           4.41900         7.94800        15.93800
C           3.67500        10.96200        17.22300
O           4.17100        11.31300        18.52300
C           3.88800        12.64000        18.98800
O           4.66600        12.62800        20.19400
C           4.00400        12.40900        21.44800
C           4.30300        11.02400        21.99900
O           3.72600        10.05300        21.11300
H           3.84600        10.35000        20.16500
C           3.74600        10.65200        23.36300
O           4.33300         9.43600        23.84800
H           3.93100         9.39800        24.76300
C           3.77200        14.82800        22.14100
O           4.46000        15.68200        21.21600
H           4.16200        16.63600        21.24800
C           4.40000        13.47900        22.45200
O           3.85700        13.12800        23.73300
C           4.10000        11.82000        24.27000
O           3.21300        11.78800        25.39800
C           3.89600        11.99700        26.64200
C           3.75700        13.44200        27.09100
O           4.22500        14.31800        26.05500
H           4.13000        13.93300        25.13700
C           4.28400        13.73800        28.48600
O           3.74000        15.02000        28.83000
H           3.76300        15.06500        29.82900
C           3.85800         9.62400        27.52900
O           3.46700         8.99800        26.29800
H           3.77200         8.04700        26.33200
C           3.45000        11.07000        27.76200
O           4.01800        11.40200        29.03700
C           3.74200        12.73500        29.49100
O           4.55300        12.79500        30.67400
C           3.90500        12.46800        31.91200
C           4.24200        11.09900        32.48100
O           3.82000        10.08900        31.55300
H           4.07800        10.50600        30.68100
C           3.73700        10.73700        33.86900
O           4.39400         9.56600        34.37600
H           4.02200         9.52400        35.30300
C           3.79800        14.90600        32.72700
O           3.98600        15.59500        31.48200
H           4.04700        16.57100        31.69000
C           4.31800        13.49600        32.95200
O           3.78300        13.19700        34.25000
C           4.20700        11.90800        34.71700
O           3.59000        11.65900        35.98800
C           4.14900        12.09900        37.23500
C           3.62900        13.44700        37.70600
O           3.78800        14.48900        36.73100
H           3.52100        14.05700        35.87000
C           4.23800        13.86600        39.03400
O           3.60500        15.10400        39.39000
H           3.90400        15.44300        40.28200
C           4.28200         9.63800        38.08100
O           3.71200         8.94500        36.96000
H           4.02900         8.00900        37.11100
C           3.78400        11.06000        38.28300
O           4.32500        11.48300        39.54300
C           3.94200        12.77200        40.04600
O           4.54200        13.03900        41.32200
C           7.70900        24.54100         2.93000
C           7.07200        25.83200         3.41900
O           7.04200        26.83900         2.39800
H           7.06200        26.34700         1.52800
C           7.64000        26.23800         4.76900
O           6.99500        27.39500         5.32100
H           7.38700        27.71000         6.18600
C           7.88000        22.01300         3.57700
O           7.05100        21.39500         2.58100
H           7.15800        20.40600         2.68300
C           7.49300        23.43500         3.94900
O           8.05700        23.93400         5.17100
C           7.36700        25.07200         5.70600
O           8.14200        25.29000         6.89400
C           7.57700        24.82600         8.12800
C           8.12800        23.48000         8.57100
O           7.69700        22.47800         7.63900
H           7.96100        22.88800         6.76600
C           7.73900        23.07600         9.98400
O           8.37000        21.92600        10.56500
H           8.03000        21.81000        11.49800
C           7.20700        27.27500         8.95500
O           7.92300        28.00100         7.94500
H           7.81000        28.98300         8.10100
C           7.78700        25.89000         9.19300
O           7.28300        25.45500        10.46500
C           7.94700        24.26300        10.91000
O           7.37900        24.04500        12.21000
C           7.95100        24.38900        13.48100
C           7.30600        25.67800        13.96200
O           7.69500        26.75800        13.10100
H           7.73800        26.51900        12.13100
C           7.84100        26.10400        15.31900
O           7.13600        27.24200        15.83600
H           7.45500        27.46900        16.75600
C           8.09500        21.90600        14.04800
O           7.36800        21.28700        12.97700
H           7.54700        20.31200        13.11100
C           7.58200        23.27900        14.45100
O           8.24000        23.68100        15.66200
C           7.69100        24.88600        16.21500
O           8.57300        24.96100        17.34500
C           7.94300        24.84100        18.62900
C           8.34100        23.46900        19.14800
O           7.96800        22.44400        18.21600
H           8.12600        22.84600        17.31400
C           7.81400        23.26200        20.55900
O           8.50500        22.11700        21.08100
H           8.14500        21.86300        21.97800
C           7.72000        27.27200        19.43000
O           8.39300        28.02500        18.41100
H           8.21100        28.99700        18.56300
C           8.33900        25.90000        19.64400
O           7.76700        25.57900        20.92000
C           8.15000        24.35300        21.56100
O           7.26900        24.13400        22.67300
C           7.84800        24.48500        23.93800
C           7.22900        25.75600        24.49500
O           7.62200        26.79000        23.58100
H           7.64900        26.34500        22.68600
C           7.70000        26.22400        25.86300
O           6.98300        27.40500        26.24900
H           7.39700        27.91000        27.00600
C           7.96300        22.06300        24.62000
O           7.53100        21.42100        23.41100
H           7.42600        20.46800        23.69800
C           7.50600        23.46000        25.00700
O           8.09200        23.79800        26.27300
C           7.55500        25.02500        26.78600
O           8.38500        25.22700        27.93900
C           7.72600        24.81700        29.14600
C           8.21900        23.48500        29.68500
O           8.03300        22.49800        28.66100
H           8.29900        22.96600        27.81800
C           7.74000        23.09400        31.07400
O           8.27900        21.83700        31.50800
H           7.71800        21.59100        32.29800
C           7.39800        27.24100        29.95200
O           8.04500        27.86100        28.83100
H           7.93300        28.83800        29.01500
C           7.88600        25.83500        30.26300
O           7.17800        25.34200        31.41100
C           7.93600        24.27900        32.00600
O           7.21600        24.03900        33.22400
C           7.84900        24.31600        34.48200
C           7.56800        25.73100        34.95900
O           7.74700        26.75100        33.96600
H           7.40400        26.36300        33.11000
C           8.17900        26.09300        36.30300
O           7.76500        27.38500        36.77100
H           8.02400        27.59200        37.71500
C           7.68100        21.87700        35.34500
O           7.35000        21.18300        34.13400
H           7.51600        20.20500        34.26500
C           7.34200        23.34600        35.53700
O           8.07300        23.66800        36.72900
C           7.76400        24.97200        37.24100
O           8.38200        25.06200        38.53300
C           7.66500        24.82400        39.75300
C           8.28700        23.55500        40.31500
O           8.32600        22.43400        39.42100
H           8.50700        22.84300        38.52600
C           7.56300        23.16200        -0.47400
O           7.86300        21.88200         0.10200
H           7.39400        21.77900         0.98000
C           7.48700        27.26800        40.47900
O           7.68500        27.87200        39.19300
H           7.36500        28.81400        39.29400
C           8.04200        25.88300        -1.29300
O           7.59200        25.52700         0.02300
C           8.00200        24.23900         0.50500
O           7.15100        24.17900         1.65900
C           3.56900        20.72900         0.35200
C           3.96100        19.37300        42.97900
O           3.88200        18.42100        41.90800
H           4.23500        18.87200        41.08800
C           3.42300        18.96400         2.27500
O           3.83900        17.73800         2.89400
H           3.64100        17.92000         3.85800
C           3.48100        23.11500         0.96000
O           4.19400        23.80300        -0.07700
H           4.15900        24.77900         0.13800
C           3.89700        21.73500         1.44300
O           3.27600        21.46300         2.70800
C           3.69400        20.16800         3.16200
O           3.07400        19.82700         4.41000
C           3.77100        20.20000         5.60800