# freq=raman b3lyp/6-31+g(d,p) geom=connectivity

450 7000.com

0 1
 O                 10.64500000    7.85700000   21.67400000
 C                 11.41800000    7.87400000   22.88300000
 C                 11.66300000    9.25000000   23.48100000
 O                 12.25900000   10.07600000   22.47000000
 H                 12.50900000    9.62000000   21.61600000
 C                 12.52100000    9.17300000   24.73300000
 O                 12.90500000   10.46500000   25.22600000
 H                 13.37000000   10.99700000   24.51800000
 C                 10.69200000    5.60300000   23.60600000
 O                 10.30200000    4.60600000   24.56200000
 H                 10.29300000    3.69500000   24.14900000
 C                 10.80600000    7.06300000   24.01400000
 O                 11.57300000    7.03100000   25.22600000
 C                 11.78700000    8.34100000   25.77200000
 O                 12.36800000    8.07100000   27.05600000
 C                 11.40100000    8.31500000   28.08800000
 C                 10.73100000    7.01500000   28.50400000
 O                  9.71900000    6.65800000   27.55100000
 H                 10.14700000    6.70600000   26.64900000
 C                  9.99100000    7.27300000   29.80700000
 O                  9.25900000    6.09600000   30.17800000
 H                  8.69100000    5.85200000   29.39200000
 C                 12.73700000   10.26800000   28.91000000
 O                 13.53300000   10.81600000   29.97000000
 H                 14.39800000   10.37900000   30.21400000
 C                 12.13000000    8.92300000   29.27500000
 O                 11.42300000    8.96100000   30.52300000
 C                 10.88900000    7.70200000   30.95600000
 O                 10.26800000    7.84700000   32.24200000
 H                 11.23521165    7.84635485   20.91694195
 H                 10.94557334    7.92319685   32.91778725
 H                 13.35222908   10.14594863   28.04311094
 H                 11.94755178   10.95292180   28.68075419
 H                 12.96395033    8.27574388   29.44960341
 H                 10.66161417    9.00136761   27.73147777
 H                 11.44842855    6.22933454   28.61769278
 H                  9.28512257    8.05801572   29.63268029
 H                 11.69205208    7.00020239   31.04253020
 H                 11.64538825    5.31015090   23.21845613
 H                  9.98991468    5.55638126   22.79989648
 H                  9.82934966    7.44401701   24.22819651
 H                 12.37228173    7.44567571   22.65764544
 H                 10.71756592    9.67416872   23.74771201
 H                 13.41793827    8.64898128   24.47647298
 H                 10.83092689    8.79309651   25.93458212

 1 2 1.0 30 1.0
 2 3 1.0 12 1.0 42 1.0
 3 4 1.0 6 1.0 43 1.0
 4 5 1.0
 5
 6 7 1.0 14 1.0 44 1.0
 7 8 1.0
 8
 9 10 1.0 12 1.0 39 1.0 40 1.0
 10 11 1.0
 11
 12 13 1.0 41 1.0
 13 14 1.0
 14 15 1.0 45 1.0
 15 16 1.0
 16 17 1.0 26 1.0 35 1.0
 17 18 1.0 20 1.0 36 1.0
 18 19 1.0
 19
 20 21 1.0 28 1.0 37 1.0
 21 22 1.0
 22
 23 24 1.0 26 1.0 32 1.0 33 1.0
 24 25 1.0
 25
 26 27 1.0 34 1.0
 27 28 1.0
 28 29 1.0 38 1.0
 29 31 1.0
 30
 31
 32
 33
 34
 35
 36
 37
 38
 39
 40
 41
 42
 43
 44
 45

