# freq=raman b3lyp/6-31+g(2d,p) geom=connectivity

450 5915/5915.com

0 1
C          11.08100         7.72300         2.03300
C          11.52500         9.10000         2.49900
O          12.65500         9.52300         1.72300
H          12.36300         9.93300         0.85900
C          12.06000         9.30600         3.90600
O          12.07100        10.68900         4.29200
H          12.68300        11.20700         3.69400
C           9.88900         5.70300         2.80600
O           9.15100         4.91300         3.75000
H           8.71100         4.11200         3.34500
C          10.28100         7.12300         3.17800
O          11.03200         7.11600         4.40100
C          11.25900         8.45200         4.87400
O          11.87700         8.10300         6.12100
C          11.09800         8.38000         7.29500
C          10.55100         7.08700         7.87800
O           9.65200         6.54900         6.89800
H          10.07500         6.49300         5.99400
C           9.93200         7.16100         9.26400
O           9.71500         5.81000         9.69900
H           9.14900         5.29200         9.05900
C          12.01000        10.57600         8.23300
O          12.73200        11.23300         9.28400
H          13.70900        11.01900         9.27100
C          11.84000         9.07700         8.42300
O          11.27800         9.07000         9.74400
C          10.89200         7.78800        10.26200
O          10.15700         8.07300        11.46000
C          11.04500         7.97000        12.58300
C          11.17400         9.40500        13.06600
O          11.98900        10.15200        12.15100
H          11.46800        10.09200        11.29900
C          11.94600         9.51000        14.37100
O          12.07300        10.82800        14.92300
H          11.98300        11.65200        14.36400
C          10.28800         5.68400        13.28900
O           9.90400         4.74400        14.30200
H           9.83300         3.87300        13.81400
C          10.36100         7.15400        13.66800
O          11.09500         7.42200        14.87100
C          11.09500         8.76300        15.38400
O          11.75500         8.52200        16.63600
C          11.02300         8.44800        17.86800
C          10.43000         7.10800        18.27200
O           9.53800         6.54200        17.30000
H           9.73700         6.91400        16.39400
C           9.68600         7.15400        19.59600
O           9.03500         5.91300        19.90600
H           8.31400         5.82700        19.21800
C          12.82300         9.90100        18.69000
O          12.33800        11.22000        18.97800
H          12.71600        11.97000        18.43500
C          12.01900         8.64800        18.99900
O          11.40600         8.64300        20.29600
C          10.66300         7.48700        20.71100
O          10.05800         7.83900        21.96400
C          10.95100         7.68800        23.07700
C          11.08600         9.13500        23.52500
O          11.82700         9.97100        22.62400
H          11.44700         9.70600        21.73800
C          11.63500         9.25700        24.93700
O          11.67400        10.62900        25.35600
H          12.06000        11.08900        24.55600
C           9.89000         5.45400        23.70600
O           9.05500         4.70600        24.60200
H           9.05100         3.76700        24.25700
C          10.11100         6.91100        24.07800
O          10.86100         6.96900        25.30000
C          10.86200         8.30200        25.83200
O          11.66500         7.90600        26.95400
C          11.04600         8.05900        28.24000
C          10.49100         6.70000        28.63700
O           9.42000         6.36600        27.74200
H           9.92300         6.34500        26.87800
C           9.91800         6.80300        30.04100
O           9.28600         5.53400        30.26200
H           8.36300         5.59900        29.88100
C          12.64400         9.78800        29.25200
O          13.37500        10.33600        30.35800
H          14.35500        10.14800        30.42400
C          12.11600         8.36300        29.27500
O          11.63800         8.37800        30.62800
C          11.02500         7.14300        31.02600
O          10.46100         7.50400        32.29500
C          11.22500         7.51700        33.51000
C          11.53200         8.91500        34.02200
O          12.50900         9.47100        33.13000
H          11.96800         9.32500        32.30200
C          11.91600         9.04000        35.48800
O          11.69400        10.36700        35.98700
H          12.24500        10.96100        35.40100
C           9.98600         5.39000        34.48800
O           9.28100         4.59500        35.45200
H           9.13500         3.70800        35.01400
C          10.36500         6.85900        34.57600
O          11.07300         6.76700        35.82100
C          11.04300         8.11300        36.31900
O          11.76700         7.83300        37.52600
C          10.92200         7.96500        38.67800
C          10.17900         6.72900        39.15800
O           9.15200         6.50200        38.18200
H           9.69400         6.31500        37.36300
C           9.40100         6.86800        40.45600
O           8.75600         5.66000        40.88600
H           7.97500         5.48300        40.28600
C          12.33700         9.78700        39.55400
O          12.95800        10.41400        40.68600
H          13.95300        10.37200        40.77800
C          11.86100         8.36500        39.80500
O          11.16100         8.47700        41.05200
C          10.46700         7.28700        41.45500
O           9.95700         7.64500        42.74800
C           4.98700         3.97700         0.40300
C           4.98300         2.58300         1.00800
O           4.54500         1.58500         0.07400
H           4.86500         2.08700        -0.73000
C           4.32000         2.46900         2.37100
O           4.15800         1.15300         2.92100
H           4.18100         0.37200         2.29700
C           5.92700         6.22800         0.88400
O           6.71100         7.02700         1.78200
H           6.83700         7.95700         1.43700
C           5.55900         4.88100         1.48400
O           4.77100         4.87200         2.68200
C           4.93400         3.55800         3.23500
O           4.38000         3.77600         4.54100
C           5.22400         3.78000         5.70300
C           5.34600         5.20100         6.22800
O           5.97900         6.11000         5.31600
H           5.46900         6.03800         4.45900
C           6.14100         5.30300         7.52000
O           5.89800         6.61700         8.04100
H           6.58100         7.32100         7.84600
C           4.14500         1.57400         6.33700
O           5.28200         0.71600         6.16100
H           5.00800        -0.07900         5.62000
C           4.48500         2.99000         6.77100
O           5.35300         3.02400         7.91300
C           5.51600         4.32300         8.50000
O           6.28200         4.04200         9.68000
C           5.40900         4.06700        10.81900
C           5.33200         2.64300        11.34600
O           4.93400         1.69600        10.34300
H           5.18600         1.96200         9.41300
C           4.32300         2.52800        12.47600
O           4.48700         1.23300        13.07100
H           4.52200         0.47900        12.41500
C           5.72100         6.47100        11.49900
O           6.65700         7.17700        12.32700
H           6.71100         8.13700        12.05500
C           5.84200         5.01700        11.92400
O           4.89400         4.84700        12.98700
C           4.74400         3.53100        13.53800
O           4.11400         3.81100        14.79700
C           4.96800         3.72600        15.94700
C           5.47300         5.04600        16.50800
O           6.15700         5.76100        15.46900
H           5.46300         5.92400        14.76700
C           6.37800         4.90000        17.72000
O           6.96700         6.17200        18.02600
H           7.65100         6.24300        17.29900
C           3.93700         1.64800        16.60000
O           4.93600         0.62500        16.48700
H           4.52000        -0.25400        16.25400
C           4.27600         3.03900        17.11200
O           4.97800         3.04000        18.36400
C           5.41600         4.34800        18.75900
O           6.00400         4.37100        20.06800
C           5.21100         4.33600        21.26300
C           5.16000         2.91500        21.79900
O           4.34600         2.09800        20.94400
H           4.52600         2.34100        19.99100
C           4.54800         2.73100        23.17800
O           4.56100         1.50500        23.92500
H           4.48800         0.66100        23.39500
C           6.57400         6.40600        22.06900
O           5.76400         7.48000        21.56900
H           6.28200         8.11400        20.99500
C           5.99600         5.03100        22.36300
O           5.11400         5.10900        23.49200
C           5.09200         3.80900        24.10100
O           4.58300         3.93700        25.43700
C           5.41100         3.64800        26.57200
C           5.66700         5.01100        27.19300
O           6.44700         5.84200        26.32200
H           5.90700         5.94100        25.48600
C           6.31100         5.12100        28.56500
O           6.19900         6.40000        29.20600
H           6.63300         7.07800        28.61300
C           4.11500         1.56900        27.37600
O           5.09900         0.57700        27.04900
H           4.60600        -0.20800        26.67500
C           4.62200         2.97000        27.68000
O           5.15400         2.97800        29.01300
C           5.50000         4.27100        29.52900
O           6.26500         3.86100        30.67200
C           5.39400         3.74100        31.80600
C           4.91600         2.36900        32.25300
O           4.20100         1.68400        31.21400
H           4.66100         2.13000        30.44700
C           4.04800         2.47500        33.49600
O           3.47500         1.23400        33.93400
H           3.18400         0.64500        33.18000
C           6.52400         5.84900        32.73800
O           6.11400         7.17300        32.36800
H           5.79800         7.24600        31.42300
C           6.08700         4.41300        32.97900
O           5.18800         4.46200        34.09700
C           4.83000         3.16700        34.60100
O           4.17300         3.40600        35.85400
C           4.98600         3.14200        37.00700
C           5.18300         4.59100        37.42200
O           5.94600         5.38500        36.50200
H           5.76000         5.20000        35.53700
C           5.62300         4.81300        38.86000
O           5.56700         6.17200        39.31800
H           5.89800         6.74300        38.56600
C           4.11400         0.93200        37.71200
O           5.20000         0.07100        37.34100
H           4.83600        -0.74700        36.89600
C           4.20200         2.40400        38.08000
O           4.83700         2.54400        39.36000
C           4.90400         3.89600        39.83600
O           5.59700         3.70900        41.07900
C          14.00800        15.46100         2.69700
C          14.52400        16.80500         3.18400
O          15.44800        17.44600         2.29200
H          15.12900        17.39900         1.34600
C          15.00800        16.69400         4.62100
O          14.94300        17.97800         5.25700
H          15.32800        18.60700         4.58100
C          12.32700        13.62700         3.36700
O          13.11800        12.53400         2.87700
H          13.23400        12.70600         1.89900
C          13.12000        14.85900         3.77400
O          14.07900        14.60100         4.80900
C          14.22900        15.80500         5.57600
O          15.02300        15.48100         6.72700
C          14.35500        15.86700         7.93700
C          13.85000        14.60400         8.61600
O          13.20500        13.73500         7.67400
H          13.70200        13.75800         6.80700
C          13.03800        14.77600         9.88900
O          12.76600        13.54400        10.57300
H          12.57200        12.84600         9.88400
C          15.83100        17.73300         8.44300
O          14.87300        18.65400         7.90400
H          14.98400        18.57200         6.91300
C          15.20600        16.48100         9.03700
O          14.41800        16.76800        10.20200
C          13.90100        15.59100        10.83900
O          13.23300        16.13900        11.98500
C          13.91500        15.80700        13.20300
C          14.53700        17.09300        13.72200
O          15.27600        17.93900        12.82900
H          15.05100        17.69600        11.88500
C          15.12300        17.02500        15.12300
O          15.08100        18.29500        15.78900
H          15.72100        18.91700        15.33500
C          12.32200        13.99400        13.74200
O          12.92400        12.88400        13.06000
H          12.89700        12.92600        12.06200
C          13.07900        15.18400        14.30900
O          14.02000        14.88900        15.35100
C          14.35500        16.09700        16.05000
O          15.05300        15.75100        17.25500
C          14.27700        15.77400        18.46300
C          13.94800        14.35500        18.89700
O          13.31400        13.62400        17.83800
H          13.48200        14.08100        16.96400
C          13.22900        14.33600        20.23600
O          12.93700        13.07400        20.85400
H          12.31300        12.46700        20.36100
C          15.85500        17.64800        19.08000
O          15.25600        18.88300        18.66300
H          14.81500        18.74100        17.77700
C          15.06700        16.44600        19.57400
O          14.49900        16.39900        20.89100
C          14.08600        15.07300        21.25300
O          13.32600        15.46800        22.40400
C          13.98000        15.47400        23.68200
C          14.42400        16.85200        24.14400
O          15.43100        17.31700        23.23300
H          15.04500        17.13800        22.32800
C          15.03800        16.74300        25.53000
O          14.95600        18.07600        26.05600
H          15.26300        18.81000        25.45000
C          12.19300        13.70600        24.20300
O          12.60100        12.44100        23.66100
H          12.89400        12.61500        22.72000
C          13.07900        14.82800        24.72000
O          13.96600        14.64800        25.83400
C          14.19800        15.90700        26.48200
O          14.87600        15.77400        27.74000
C          14.18500        15.60800        28.98700
C          14.07100        14.18500        29.50900
O          13.44400        13.31300        28.55700
H          13.88100        13.42500        27.66400
C          13.26700        14.04100        30.79100
O          13.26100        12.74100        31.39800
H          13.17300        12.02200        30.70900
C          15.61200        17.58300        29.63800
O          15.15300        18.79900        29.03000
H          14.72200        18.62900        28.14400
C          14.74800        16.43400        30.13200
O          13.81500        16.43400        31.22200
C          13.82500        15.09400        31.73500
O          12.98300        15.26200        32.88500
C          13.64800        15.24200        34.15600
C          13.91800        16.65000        34.65900
O          14.48000        17.64900        33.79600
H          14.16900        17.33800        32.89800
C          14.79700        16.56300        35.89600
O          15.25800        17.81600        36.42200
H          15.26700        18.44600        35.64600
C          12.23300        13.22900        34.86800
O          13.05500        12.13200        34.44500
H          13.30000        12.37500        33.50600
C          12.88500        14.54200        35.26900
O          13.77700        14.42500        36.38700
C          14.13200        15.69500        36.95100
O          14.96800        15.26500        38.03500
C          14.23500        15.21800        39.26800
C          13.74100        13.87300        39.77500
O          12.74900        13.32500        38.89400
H          13.09000        13.23200        37.95800
C          13.10700        13.91500        41.15600
O          13.01700        12.66600        41.85800
H          12.74300        11.94100        41.22600
C          15.70800        17.22600        40.06900
O          15.11800        18.40100        39.49500
H          15.22600        18.25700        38.51200
C          14.98200        15.92800        40.38500
O          14.08100        16.15200        41.47900
C          13.84200        14.87100        42.08000
O          13.10000        15.22500        43.25600
C           7.80700        11.80300        41.43200
C           7.48500        10.42100        41.97700
O           6.57800         9.68700        41.14200
H           6.97400         9.49300        40.24400
C           7.03000        10.87500         1.48700
O           6.61800         9.66200         2.13500
H           5.67000         9.72800         2.44700
C           9.16400        13.99000        42.04000
O           8.35200        14.73400        41.11900
H           8.76100        14.75200        40.20700
C           8.90000        12.88900         0.57400
O           8.15300        13.01600         1.79300
C           7.86600        11.75000         2.40600
O           7.20800        12.18500         3.60500
C           7.98800        11.88200         4.77100
C           8.36100        13.28000         5.23700
O           9.05200        13.98700         4.19700
H           8.62500        13.78200         3.31700
C           9.14700        13.30800         6.53800
O           9.19400        14.63200         7.08800
H           9.72800        15.25200         6.51400
C           6.79700         9.77200         5.41500
O           7.70500         8.69300         5.15000
H           7.21100         7.85600         4.91500
C           7.21600        11.16200         5.86500
O           7.87500        11.10200         7.13800
C           8.29300        12.44000         7.44800
O           8.90200        12.29500         8.73900
C           8.09800        12.34600         9.92700
C           7.75300        10.99400        10.52900
O           7.07900        10.08800         9.64300
H           7.48200        10.23400         8.73900
C           6.95200        11.04200        11.81900
O           6.38000         9.92200        12.51100
H           5.54800        10.25900        12.95100
C           8.99200        14.51500        10.48700
O           8.08400        15.62000        10.60000
H           8.39300        16.36100        10.00500
C           8.68000        13.15000        11.07800
O           7.88700        13.20200        12.27300
C           7.70100        11.89300        12.83100
O           7.06300        11.98000        14.11400
C           7.81200        11.66000        15.29500
C           8.12200        13.00200        15.93900
O           8.81800        13.93000        15.09400
H           8.23200        13.87800        14.28600
C           8.97400        12.81300        17.18300
O           9.60300        13.99700        17.69500
H          10.21100        14.34000        16.97900
C           6.83900         9.41100        15.89000
O           7.60400         8.23300        16.18400
H           7.39200         7.40300        15.66800
C           7.01300        10.86100        16.31200
O           7.62500        10.84100        17.61000
C           8.03800        12.10500        18.14900
O           8.75300        11.59100        19.28300
C           8.01800        11.92400        20.47000
C           7.61100        10.60100        21.09800
O           6.87300         9.75800        20.20200
H           7.22500         9.74200        19.26600
C           6.96700        10.64800        22.47400
O           6.66500         9.36600        23.04500
H           5.90100         8.91600        22.58400
C           8.88600        14.14600        21.13500
O           9.65100        14.86500        22.11400
H           9.59400        15.85700        21.99900
C           8.86000        12.66900        21.49300
O           8.30100        12.67600        22.81400
C           7.96400        11.38800        23.35000
O           7.32900        11.58300        24.62100
C           8.03400        11.73000        25.86200
C           8.31700        13.15300        26.31500
O           8.92700        13.91500        25.26300
H           8.51500        13.67100        24.38600
C           9.12300        13.25800        27.59900
O           9.35600        14.57300        28.12500
H           9.89000        14.97400        27.38100
C           7.15600         9.43900        26.49100
O           7.01600         8.35700        27.42300
H           6.77600         7.50000        26.96700
C           7.40200        10.86900        26.94400
O           8.31200        11.01600        28.04400
C           8.50500        12.31600        28.62000
O           9.10400        12.13200        29.91100
C           8.35900        11.98500        31.12900
C           8.19500        10.52400        31.51400
O           7.48200         9.91000        30.43100
H           7.77100        10.29000        29.55200
C           7.49000        10.43800        32.85800
O           7.54600         9.12100        33.42500
H           6.88200         8.43900        33.11900
C           9.40100        14.18300        31.79200
O           9.91400        15.04900        32.81500
H           9.77500        15.99600        32.52500
C           9.00100        12.78900        32.24700
O           8.12500        12.79000        33.38400
C           8.11600        11.42500        33.82900
O           7.23900        11.36500        34.96300
C           7.88800        11.41500        36.24200
C           8.22000        12.79200        36.79500
O           8.98900        13.59800        35.89000
H           8.59700        13.15400        35.08500
C           8.92100        12.62500        38.13300
O           9.24500        13.97200        38.50900
H           9.78800        14.28500        37.72900
C           7.00300         9.08000        36.68700
O           6.49800         8.01300        37.50300
H           6.61300         7.18200        36.96000
C           7.17300        10.49400        37.21700
O           7.99800        10.45300        38.39100
C           8.04900        11.74500        39.01300
O           8.65900        11.57700        40.30000
C          16.44100        23.36500         2.30500
C          17.04700        24.69300         2.72900
O          17.80000        25.34100         1.69400
H          17.33700        25.24600         0.81300
C          17.87800        24.63800         4.00100
O          18.63400        25.79500         4.38900
H          19.23000        26.04600         3.62600
C          15.60400        21.21100         3.18300
O          15.00800        20.26800         4.08600
H          14.05000        20.54600         4.15100
C          15.88200        22.66400         3.53300
O          16.57100        22.82700         4.78100
C          16.95100        24.17100         5.11200
O          17.54600        24.08400         6.41500
C          16.69900        23.91400         7.56100
C          16.63300        22.46300         8.01000
O          15.82700        21.65900         7.13600
H          16.04800        21.91700         6.19600
C          15.91300        22.23200         9.32900
O          16.11000        20.86800         9.72600
H          15.85200        20.27500         8.96300
C          17.65300        26.10100         8.26300
O          18.08900        26.93000         9.35000
H          18.24200        27.81600         8.91200
C          17.32900        24.68400         8.71000
O          16.52100        24.52600         9.88500
C          16.56900        23.16400        10.33500
O          15.94900        23.18700        11.62800
C          16.84400        23.11100        12.74800
C          17.30400        24.50800        13.13000
O          18.43800        24.93500        12.36000
H          18.11200        25.20300        11.45300
C          17.77200        24.60300        14.57300
O          17.97300        25.98100        14.92100
H          18.90300        26.13600        14.58700
C          15.42000        21.29300        13.61900
O          16.38300        20.29400        13.25200
H          15.96100        19.41000        13.05200
C          15.99300        22.66700        13.92600
O          16.46900        22.69000        15.28000
C          16.78900        24.05300        15.59300
O          17.43800        23.90900        16.86500
C          16.57300        23.81600        18.00600
C          16.36900        22.42600        18.58600
O          15.74200        21.61700        17.58100
H          16.19900        21.77700        16.70600
C          15.83700        22.31500        20.00600
O          15.95500        20.96700        20.48400
H          15.67600        20.28900        19.80400
C          17.35200        26.13700        18.73000
O          18.10000        26.96500        19.63200
H          18.37800        27.72600        19.04500
C          17.17100        24.67600        19.10700
O          16.42100        24.63000        20.33000
C          16.46900        23.33300        20.94100
O          15.78700        23.49900        22.19200
C          16.67200        23.35900        23.31300
C          17.39500        24.63400        23.71500
O          18.20300        25.17300        22.65900
H          17.66000        25.23900        21.82100
C          18.22900        24.41900        24.96800
O          18.88200        25.59200        25.47700
H          19.74500        25.69200        24.98200
C          15.77300        21.10500        24.09900
O          15.02000        20.46300        25.13800
H          14.15700        20.96300        25.20700
C          16.04300        22.56100        24.44300
O          16.86800        22.52000        25.61600
C          17.28000        23.83900        26.00400
O          17.74700        23.54700        27.32900
C          16.83100        23.69800        28.42300
C          16.48000        22.30100        28.90600
O          15.66700        21.62700        27.93400
H          15.92900        22.00800        27.04800
C          15.83600        22.13800        30.27400
O          15.78400        20.79400        30.77300
H          15.18200        20.27900        30.16200
C          17.57300        25.96900        28.94100
O          18.25800        26.76800        29.91600
H          18.41000        27.63400        29.43900
C          17.58500        24.53500        29.44400
O          16.96500        24.28100        30.71300
C          16.75300        22.94200        31.18300
O          16.10700        23.10900        32.45300
C          16.87700        22.96300        33.65500
C          17.51200        24.23000        34.20500
O          18.38300        24.91900        33.29700
H          18.15900        24.75700        32.33600
C          18.05500        24.23800        35.62400
O          18.56600        25.46900        36.15800
H          19.49900        25.52900        35.80400
C          15.63800        20.96000        34.34200
O          14.78600        20.31300        35.29900
H          13.84300        20.54600        35.06100
C          16.01600        22.37100        34.76000
O          16.64300        22.35500        36.05100
C          16.98000        23.66400        36.53200
O          17.42500        23.65100        37.89600
C          16.42600        23.47800        38.91200
C          16.33500        22.03100        39.36800
O          15.67300        21.14700        38.45100
H          16.21200        21.08200        37.61100
C          15.46600        21.97400        40.61400
O          15.68800        20.64500        41.10700
H          15.28300        19.98400        40.47500
C          17.04800        25.89600        39.82700
O          17.66300        26.66600        40.87000
H          17.77800        27.51900        40.36200
C          16.83100        24.40700        40.04400
O          15.97200        24.28400        41.18700
C          15.96300        22.93600        41.68100
O          15.35400        23.04500        42.97500
C          10.77800        19.55900        41.15100
C          10.33400        18.20500        41.67900
O           9.55500        17.69000        40.59000
H          10.20000        17.66900        39.82600
C           9.82200        18.70200         1.15100
O           9.12100        17.54100         1.62200
H           8.22800        17.57800         1.17200
C          11.78700        21.72600        41.79100
O          10.80800        22.65200        41.29800
H          11.19100        23.57500        41.32500
C          11.82100        20.56800         0.39200
O          11.08700        20.62200         1.62400
C          10.74400        19.34300         2.17600
O          10.10100        19.48400         3.45100
C          10.78000        19.27400         4.69800