# freq=raman b3lyp/6-31+g(d,p) geom=connectivity

400 6000.com

0 1
O           8.85600         7.28100        22.71700
C           9.51200         7.61400        23.94900
C           9.29900         9.06600        24.34500
O           9.41000        10.02100        23.28000
H           9.22800         9.47600        22.46200
C          10.04200         9.27700        25.65400
O           9.78500        10.61600        26.10200
H          10.10700        10.69000        27.04600
C           9.07600         5.25000        24.90200
O           8.60400         4.50100        23.77200
H           8.66300         3.52300        23.97300
C           9.05700         6.75400        25.11800
O           9.85100         6.90700        26.30300
C           9.59400         8.26300        26.69400
O          10.20100         8.21400        27.99400
C           9.34600         7.99900        29.12600
C           9.77100         6.62700        29.62400
O           9.62800         5.66700        28.56800
H           9.91200         6.15000        27.73900
C           9.32900         6.30100        31.04200
O          10.15300         5.28500        31.63400
H           9.70600         5.05800        32.49900
C           9.73800        10.42000        29.74100
O          10.36900        11.08400        28.63700
H          10.04800        12.02200        28.76300
C           9.78300         8.97400        30.20700
O           8.96500         8.78800        31.37100
C           9.41300         7.53900        31.91800
O           8.50600         7.57000        33.03000

