# freq=raman b3lyp/6-31+g(d,p) geom=connectivity

350 7000.com

0 1
 O                  7.45900000    7.64300000   12.16900000
 C                  7.99300000    7.98100000   13.45600000
 C                  7.41100000    9.26200000   14.03200000
 O                  7.30100000   10.25600000   13.00400000
 H                  7.30000000    9.79800000   12.11500000
 C                  7.89000000    9.81800000   15.36300000
 O                  6.96200000   10.81200000   15.82200000
 H                  7.41200000   11.10200000   16.66600000
 C                  8.31100000    5.51000000   14.24300000
 O                  7.67700000    4.75700000   13.19900000
 H                  7.86100000    3.78900000   13.37200000
 C                  7.74100000    6.89700000   14.49100000
 O                  8.39100000    7.36000000   15.68400000
 C                  7.77000000    8.54900000   16.19200000
 O                  8.45000000    8.71500000   17.44400000
 C                  7.86900000    8.27300000   18.67900000
 C                  8.57000000    7.02400000   19.18700000
 O                  8.50900000    5.90600000   18.28900000
 H                  8.84200000    6.34900000   17.45700000
 C                  8.09300000    6.69000000   20.59100000
 O                  8.93300000    5.69400000   21.19200000
 H                  8.45900000    5.22600000   21.93800000
 C                  8.06300000   10.81300000   19.35000000
 O                  8.58700000   11.46500000   18.18500000
 H                  8.64700000   12.45700000   18.29900000
 C                  8.22400000    9.34300000   19.70000000
 O                  7.73600000    9.17400000   21.03900000
 C                  8.27100000    7.91500000   21.47300000
 O                  7.75300000    7.54700000   22.76000000
 H                  8.48161096    7.37515374   23.36099495
 H                  9.32496500    8.05732159   21.59048337
 H                  7.07125576    6.37240544   20.58249061
 H                  9.60575322    7.27770443   19.27503032
 H                  6.81100582    8.13479950   18.59869477
 H                  9.28281562    9.22789168   19.80275974
 H                  8.45372427   11.35467236   20.18595789
 H                  7.00845510   10.99347434   19.33375004
 H                  8.17980115    7.48193819   11.55572617
 H                  8.23508346    4.95032673   15.15179179
 H                  9.34735153    5.61375591   13.99782615
 H                  6.68898434    6.81862455   14.66994226
 H                  9.05051079    8.10908370   13.35517591
 H                  6.39491330    8.99611080   14.23637893
 H                  8.89566328   10.18019454   15.31445629
 H                  6.73527783    8.35060911   16.37879158

 1 2 1.0 38 1.0
 2 3 1.0 12 1.0 42 1.0
 3 4 1.0 6 1.0 43 1.0
 4 5 1.0
 5
 6 7 1.0 14 1.0 44 1.0
 7 8 1.0
 8
 9 10 1.0 12 1.0 39 1.0 40 1.0
 10 11 1.0
 11
 12 13 1.0 41 1.0
 13 14 1.0
 14 15 1.0 45 1.0
 15 16 1.0
 16 17 1.0 26 1.0 34 1.0
 17 18 1.0 20 1.0 33 1.0
 18 19 1.0
 19
 20 21 1.0 28 1.0 32 1.0
 21 22 1.0
 22
 23 24 1.0 26 1.0 36 1.0 37 1.0
 24 25 1.0
 25
 26 27 1.0 35 1.0
 27 28 1.0
 28 29 1.0 31 1.0
 29 30 1.0
 30
 31
 32
 33
 34
 35
 36
 37
 38
 39
 40
 41
 42
 43
 44
 45

