# freq=raman b3lyp/6-31+g(d,p) geom=connectivity

320 8000.com

0 1
 O                  7.78000000    7.41600000   22.71200000
 C                  8.18700000    7.78900000   24.03700000
 C                  7.70100000    9.16200000   24.47200000
 O                  8.13300000   10.11600000   23.49100000
 H                  7.90000000    9.82300000   22.56400000
 C                  8.34000000    9.47800000   25.81400000
 O                  8.02500000   10.78400000   26.31900000
 H                  8.08300000   10.86700000   27.31300000
 C                  8.35300000    5.38000000   24.85000000
 O                  8.01000000    4.68700000   23.64100000
 H                  8.35900000    3.75200000   23.70100000
 C                  7.75300000    6.76000000   25.06800000
 O                  8.38100000    7.13700000   26.30200000
 C                  7.92800000    8.40200000   26.80500000
 O                  8.63400000    8.59500000   28.03900000
 C                  7.97500000    8.20700000   29.25400000
 C                  8.51200000    6.86100000   29.71100000
 O                  8.40100000    5.82300000   28.72600000
 H                  8.47800000    6.34300000   27.87600000
 C                  7.88900000    6.43200000   31.03000000
 O                  8.41500000    5.21000000   31.56700000
 H                  8.23500000    5.12100000   32.54700000
 C                  8.03800000   10.70100000   30.27000000
 O                  8.17300000   11.44600000   29.05000000
 H                  8.01600000   12.40200000   29.29600000
 C                  8.29800000    9.20600000   30.35300000
 O                  7.79100000    8.79500000   31.63100000
 C                  8.23700000    7.49800000   32.05500000
 O                  7.50000000    7.30700000   33.27200000
 H                  8.55721755    7.26330432   22.16958235
 H                  8.05895312    4.76328174   25.67346525
 H                  9.41797552    5.47996362   24.87710030
 H                  6.68835101    6.71851563   25.16649656
 H                  9.25667618    7.81450593   24.04350578
 H                  6.63431521    9.17026891   24.55575668
 H                  9.40157204    9.42272242   25.69189675
 H                  6.86927073    8.40062690   26.95988853
 H                  8.11242007    7.19237730   34.00234464
 H                  8.68848035   11.16331712   30.98276799
 H                  7.03587671   10.85531298   30.61181342
 H                  9.36149727    9.13667635   30.44822495
 H                  6.91732069    8.15207651   29.10169148
 H                  9.55729852    6.99634940   29.89520515
 H                  6.82658021    6.35856192   30.92621641
 H                  9.28910996    7.50684487   32.24964427

 1 2 1.0 30 1.0
 2 3 1.0 12 1.0 34 1.0
 3 4 1.0 6 1.0 35 1.0
 4 5 1.0
 5
 6 7 1.0 14 1.0 36 1.0
 7 8 1.0
 8
 9 10 1.0 12 1.0 31 1.0 32 1.0
 10 11 1.0
 11
 12 13 1.0 33 1.0
 13 14 1.0
 14 15 1.0 37 1.0
 15 16 1.0
 16 17 1.0 26 1.0 42 1.0
 17 18 1.0 20 1.0 43 1.0
 18 19 1.0
 19
 20 21 1.0 28 1.0 44 1.0
 21 22 1.0
 22
 23 24 1.0 26 1.0 39 1.0 40 1.0
 24 25 1.0
 25
 26 27 1.0 41 1.0
 27 28 1.0
 28 29 1.0 45 1.0
 29 38 1.0
 30
 31
 32
 33
 34
 35
 36
 37
 38
 39
 40
 41
 42
 43
 44
 45

