# freq=raman b3lyp/6-31+g(2d,p) geom=connectivity

493 5459/5459.com

0 1
C           8.14200         7.71300         2.89700
C           7.67800         9.06600         3.41000
O           8.15800        10.03800         2.46900
H           7.98000         9.75000         1.52800
C           8.25300         9.52200         4.74100
O           7.63200        10.70500         5.26600
H           8.01900        10.89600         6.16800
C           8.22300         5.28600         3.86100
O           7.64700         4.59500         2.74300
H           7.78700         3.60600         2.77700
C           7.80600         6.73900         4.01500
O           8.46900         7.14600         5.22100
C           7.98700         8.39800         5.72900
O           8.73700         8.43800         6.95100
C           8.09200         8.21500         8.21300
C           8.46300         6.82900         8.71200
O           8.20400         5.79000         7.75700
H           8.62400         6.13700         6.91800
C           8.06000         6.51500        10.14400
O           8.53900         5.24000        10.59700
H           8.10100         5.03400        11.47300
C           8.17000        10.59800         8.88300
O           8.73600        11.35100         7.80100
H           8.52900        12.31600         7.95800
C           8.50200         9.17900         9.31500
O           7.89000         8.86400        10.57400
C           8.41300         7.63800        11.10500
O           7.64100         7.44700        12.30000
C           8.12200         7.85100        13.59000
C           7.49900         9.15600        14.05800
O           7.90000        10.28000        13.26200
H           7.59400         9.94100        12.37200
C           8.11700         9.45700        15.41300
O           7.69300        10.70800        15.97200
H           8.00000        10.84700        16.91400
C           8.18700         5.31700        14.26700
O           7.66100         4.62100        13.12700
H           7.97500         3.67200        13.13800
C           7.72400         6.73800        14.54500
O           8.27800         7.05200        15.83100
C           7.91600         8.31800        16.40000
O           8.82200         8.46100        17.50400
C           8.27700         8.10600        18.78400
C           8.70100         6.76400        19.35900
O           8.46700         5.74400        18.37700
H           8.69900         6.28000        17.56500
C           8.20400         6.37000        20.74000
O           8.84600         5.19400        21.25400
H           8.40700         4.75800        22.03900
C           8.14100        10.54900        19.57400
O           8.52400        11.34400        18.44100
H           8.30100        12.28300        18.70300
C           8.54600         9.11800        19.88500
O           8.00300         8.78600        21.17100
C           8.43900         7.52500        21.69900
O           7.54200         7.43100        22.81600
C           8.18100         7.77800        24.05300
C           7.76100         9.16100        24.52400
O           8.14900        10.19400        23.60800
H           7.93300         9.75300        22.73700
C           8.33500         9.36500        25.91700
O           7.88800        10.60600        26.48100
H           8.25200        10.69000        27.40800
C           8.28000         5.28500        24.77300
O           7.54500         4.56900        23.77100
H           7.81700         3.61600        23.90200
C           7.82200         6.70400        25.06600
O           8.43300         6.99400        26.33200
C           8.10500         8.25600        26.93100
O           8.88300         8.39300        28.12900
C           8.34900         8.05500        29.41800
C           8.83300         6.71700        29.95400
O           8.50200         5.68300        29.01600
H           8.75400         5.93200        28.08100
C           8.19100         6.36400        31.28600
O           8.72000         5.14400        31.82500
H           8.17200         4.91500        32.63000
C           8.08000        10.43600        30.10800
O           8.59400        11.22100        29.02200
H           8.52700        12.20400        29.19300
C           8.72400         9.10300        30.45300
O           8.06900         8.86100        31.70600
C           8.35300         7.55200        32.22100
O           7.41900         7.43800        33.30400
C           7.98700         7.73500        34.58800
C           7.48600         9.06700        35.12200
O           7.51600        10.02800        34.05700
H           7.58200         9.53600        33.18800
C           8.06700         9.55300        36.43900
O           7.38300        10.71000        36.94100
H           7.86800        11.03500        37.75300
C           8.22000         5.31100        35.61800
O           7.81500         4.67700        34.39600
H           7.94500         3.69300        34.51600
C           7.71100         6.74100        35.70400
O           8.36100         7.15900        36.91400
C           7.90500         8.41600        37.43500
O           8.80500         8.59200        38.53900
C           8.29000         8.11400        39.79000
C           8.83300         6.78900        40.29900
O           8.65600         5.74600        39.32900
H           8.72500         6.16300        38.42300
C           8.25000         6.43400        -0.41300
O           8.46500         5.14000         0.17000
H           8.04500         5.17400         1.07700
C           8.12000        10.53900        40.56800
O           8.52600        11.29800        39.42000
H           8.34500        12.27700        39.52300
C           8.76400         9.17400        -1.29700
O           8.28100         8.81900         0.00600
C           8.63100         7.54100         0.55700
O           7.70200         7.25100         1.61100
C           3.99000         4.40900         0.33600
C           4.28500         2.99800        42.88000
O           3.89900         1.98900        41.93500
H           4.38400         2.14500        41.07500
C           3.83800         2.70900         2.23400
O           4.56300         1.58300         2.75000
H           4.34500         1.37800         3.70400
C           4.10300         6.82000         1.16400
O           4.31400         7.43300        -0.11600
H           4.08600         8.40500        -0.07500
C           4.48700         5.36900         1.40400
O           4.01500         5.15300         2.74200
C           4.22300         3.81100         3.20700
O           3.40600         3.77900         4.38700
C           4.14800         3.97100         5.60100
C           3.86300         5.35500         6.16200
O           4.01100         6.31500         5.10600
H           3.85200         5.92000         4.20100
C           4.58100         5.69900         7.45600
O           4.20200         6.99000         7.95500
H           4.28100         7.05100         8.95000
C           4.37100         1.53000         6.39500
O           4.08400         0.70800         5.25500
H           4.37400        -0.23300         5.42800
C           3.84300         2.93000         6.66500
O           4.38700         3.31100         7.93700
C           4.04400         4.62800         8.39200
O           4.78800         4.63900         9.61800
C           4.13000         4.07100        10.76000
C           4.67500         2.75100        11.27900
O           4.31000         1.82100        10.24900
H           4.42500         2.22700         9.34200
C           3.94400         2.29700        12.53200
O           4.51600         1.14900        13.17600
H           4.29300         1.18600        14.15000
C           3.77300         6.48600        11.71200
O           4.21400         7.29200        10.61000
H           4.13000         8.25900        10.85100
C           4.33000         5.08100        11.87800
O           3.59400         4.65500        13.03400
C           4.08400         3.41100        13.55600
O           3.32100         3.23800        14.75800
C           3.92200         3.78500        15.94100
C           3.40600         5.15200        16.36200
O           3.93500         6.09800        15.42100
H           3.79100         5.61900        14.55600
C           4.00800         5.56700        17.69400
O           3.27200         6.67800        18.22500
H           3.41000         6.86100        19.19900
C           4.38500         1.43100        16.78600
O           4.10300         0.66000        15.60900
H           4.31300        -0.29800        15.80100
C           3.75000         2.78200        17.07000
O           4.32900         3.32200        18.26700
C           3.82800         4.55100        18.81100
O           4.56900         4.73100        20.02800
C           3.95200         4.37800        21.27500
C           4.30300         3.01600        21.85200
O           4.03700         2.01600        20.85900
H           4.05900         2.45900        19.96200
C           3.56400         2.61400        23.11800
O           4.00100         1.29600        23.48000
H           3.79300         1.16900        24.45000
C           3.55700         6.81600        22.06300
O           3.98000         7.48000        20.86400
H           4.05500         8.47600        20.91800
C           4.12800         5.43700        22.35000
O           3.49300         5.04100        23.57500
C           3.94700         3.76100        24.04000
O           3.27000         3.56000        25.29000
C           3.97400         3.79500        26.51800
C           3.75500         5.23000        26.96800
O           4.25300         6.17900        26.01400
H           3.78200         5.87400        25.18600
C           4.36500         5.36200        28.35400
O           4.14700         6.70700        28.80600
H           4.28600         6.77800        29.79300
C           3.95500         1.33200        27.22300
O           3.70500         0.73900        25.94100
H           4.11800        -0.17000        25.98200
C           3.63000         2.77200        27.58800
O           4.10900         3.00800        28.92000
C           3.85600         4.34900        29.36600
O           4.57200         4.39400        30.60800
C           3.70300         4.22700        31.73800
C           3.99800         2.85300        32.31700
O           3.42100         1.92500        31.38600
H           3.73800         2.21300        30.48200
C           3.56500         2.49200        33.72800
O           4.08300         1.24400        34.21100
H           3.77900         1.04100        35.14200
C           3.76800         6.59900        32.51800
O           4.15000         7.30600        31.32900
H           4.01300         8.29200        31.42600
C           4.08800         5.15700        32.87600
O           3.51400         4.87900        34.16100
C           3.99200         3.61900        34.65500
O           3.25700         3.59200        35.88700
C           4.07900         3.83400        37.03800
C           3.92900         5.25600        37.55400
O           4.29500         6.15200        36.49300
H           3.86400         5.91000        35.62300
C           4.60200         5.59300        38.87400
O           4.48000         6.91500        39.41900
H           4.44100         6.91800        40.41800
C           4.14100         1.45800        37.83200
O           3.65900         0.68400        36.72300
H           4.02100        -0.24800        36.71000
C           3.64400         2.86500        38.12500
O           4.41500         3.23300        39.27800
C           4.13500         4.52100        39.84500
O           4.67600         4.64500        41.16900
C           8.01600        15.75400         3.00800
C           7.56400        17.15400         3.39100
O           7.88900        18.10100         2.36400
H           7.71100        17.65600         1.48600
C           8.11700        17.59600         4.73600
O           7.39900        18.74800         5.20000
H           7.82500        19.07700         6.04300
C           8.09900        13.47500         3.80600
O           7.61300        12.88900         2.58900
H           7.70100        11.89400         2.64200
C           7.56600        14.85600         4.14900
O           8.20900        15.23000         5.37600
C           7.93900        16.56200         5.83600
O           8.79800        16.79500         6.96200
C           8.19300        16.51700         8.23300
C           8.57600        15.15200         8.77800
O           8.09300        14.19100         7.82800
H           8.36900        14.64800         6.98200
C           8.15200        14.83100        10.20300
O           8.66800        13.61200        10.75800
H           8.18400        13.39000        11.60400
C           7.84500        18.93900         8.98500
O           8.18000        19.49600         7.70600
H           8.12100        20.47700         7.88800
C           8.47000        17.58500         9.27800
O           8.02600        17.21300        10.59100
C           8.49800        15.97500        11.14100
O           7.62500        15.64300        12.23100
C           8.10900        15.97300        13.54100
C           7.44700        17.24400        14.04900
O           7.65100        18.26000        13.05700
H           7.75400        17.75600        12.19900
C           7.85000        17.51700        15.48900
O           7.38200        18.66400        16.21200
H           7.92900        18.87500        17.02200
C           8.30600        13.52700        14.23200
O           7.71100        12.88600        13.09400
H           7.76800        11.89900        13.24100
C           7.69900        14.89000        14.52500
O           8.01800        15.10100        15.90800
C           7.58100        16.36100        16.43800
O           8.50100        16.55000        17.52300
C           8.01200        16.24900        18.83800
C           8.44100        14.90500        19.40300
O           8.06300        13.90400        18.44600
H           8.26800        14.33900        17.57000
C           7.92400        14.55600        20.78900
O           8.23900        13.27500        21.35200
H           7.88900        13.11200        22.27500
C           7.88700        18.56200        19.64700
O           8.23400        19.30300        18.46800
H           8.11600        20.29400        18.53700
C           8.51700        17.20400        19.90700
O           7.94400        16.94300        21.19700
C           8.40600        15.67900        21.69400
O           7.57500        15.52700        22.85400
C           8.14700        15.90700        24.11400
C           7.52400        17.22300        24.54800
O           7.82900        18.24100        23.58300
H           7.70900        17.92800        22.64100
C           7.95800        17.63000        25.94700
O           7.20500        18.79400        26.31800
H           7.48400        18.93000        27.26900
C           8.40200        13.42100        24.84200
O           7.56600        12.66300        23.95600
H           7.94200        11.73800        23.90000
C           7.93500        14.83100        25.16600
O           8.47000        15.27400        26.42100
C           7.76600        16.44000        26.87300
O           8.35000        16.79600        28.13500
C           7.75500        16.40700        29.38100
C           8.42700        15.12400        29.84200
O           8.56300        14.02700        28.92700
H           8.91900        14.48900        28.11500
C           7.75000        14.67300        31.12600
O           8.50500        13.62900        31.75900
H           7.84100        13.31300        32.43600
C           7.42500        18.85200        30.00000
O           7.79400        19.45600        28.75200
H           7.97500        20.43600        28.83200
C           7.93000        17.48700        30.43700
O           7.32400        17.08600        31.67400
C           7.79700        15.81100        32.13200
O           7.14400        15.64500        33.39900
C           7.84200        15.95300        34.61500
C           7.40200        17.32000        35.11200
O           7.48500        18.36100        34.12800
H           7.30000        17.98700        33.22000
C           8.09800        17.63300        36.42700
O           7.58100        18.85400        36.97500
H           7.71000        18.86600        37.96700
C           7.89200        13.41000        35.28500
O           7.31800        12.82800        34.10500
H           7.39200        11.83100        34.14400
C           7.71200        14.86900        35.67200
O           8.43500        15.29400        36.83600
C           7.87400        16.48800        37.40100
O           8.68600        16.74600        38.55600
C           8.07600        16.34000        39.79000
C           8.54100        14.96900        40.25300
O           8.35900        13.94100        39.26800
H           8.67000        14.39500        38.43300
C           7.86900        14.55300        -0.51900
O           8.18200        13.32400         0.15300
H           7.75700        13.30300         1.05800
C           7.60500        18.61200        40.53700
O           7.98200        19.39500        39.39500
H           7.89700        20.34300        39.70100
C           8.39500        17.35500        -1.19200
O           7.91100        16.96000         0.10000
C           8.21700        15.61900         0.50800
O           7.47700        15.41900         1.72100
C           3.90800        12.45500         0.14700
C           4.08900        11.04200        42.74200
O           3.73400        10.02300        41.79600
H           3.84400        10.31200        40.84500
C           3.42100        10.94200         2.03300
O           3.76300         9.71900         2.70200
H           3.36600         9.63000         3.61500
C           3.92500        14.85000         0.75700
O           4.53500        15.63400        -0.27900
H           4.06400        16.51400        -0.21400
C           4.28600        13.45200         1.23000
O           3.66300        13.35500         2.51900
C           3.89800        12.02100         2.99200
O           3.17600        12.03000         4.23200
C           3.84300        12.12600         5.49900
C           3.77700        13.56700         5.97700
O           4.41000        14.40800         5.00200
H           4.26300        14.00400         4.09900
C           4.33300        13.83600         7.36500
O           3.99700        15.16100         7.80300
H           4.29200        15.24100         8.75500
C           3.60000         9.75500         6.38400
O           3.39200         9.09400         5.12800
H           3.62800         8.13400         5.27800
C           3.29200        11.22900         6.59500
O           3.96200        11.46000         7.84200
C           3.78900        12.79700         8.33200
O           4.51300        12.82500         9.57100
C           3.87500        12.51200        10.81800
C           4.09000        11.09800        11.33300
O           3.74900        10.18800        10.27600
H           4.16800        10.52700         9.43400
C           3.48000        10.69300        12.66400
O           3.98800         9.41500        13.07400
H           3.80900         9.22300        14.03900
C           3.72200        14.92700        11.77400
O           3.97700        15.49900        10.48300
H           3.77700        16.47800        10.44700
C           4.09000        13.46700        11.98100
O           3.53800        13.01400        13.22600
C           3.88500        11.71100        13.71800
O           3.03500        11.65700        14.87300
C           3.86500        11.94900        16.00700
C           3.42600        13.28600        16.58100
O           3.63500        14.26300        15.55100
H           3.67100        13.80600        14.66300
C           4.13900        13.67200        17.86600
O           3.62900        14.85400        18.50000
H           4.14600        15.05200        19.33300
C           4.37000         9.48700        16.69400
O           3.75500         8.84600        15.56700
H           3.92200         7.86300        15.48000
C           3.82300        10.85600        17.06300
O           4.47700        11.24500        18.28000
C           3.90600        12.46900        18.76500
O           4.51500        12.75300        20.03300
C           3.92800        12.45100        21.30800
C           4.47400        11.10600        21.75800
O           4.27200        10.04900        20.80900
H           4.40500        10.44200        19.89900
C           3.83900        10.71300        23.08300
O           4.51000         9.61300        23.71300
H           4.02300         9.49400        24.57800
C           3.79600        14.82100        22.03900
O           4.52400        15.54200        21.03500
H           4.05300        16.42200        20.96600
C           4.36800        13.45100        22.36500
O           3.80100        13.12400        23.64200
C           4.06300        11.79800        24.12300
O           3.30000        11.67700        25.33200
C           4.01200        11.97500        26.54200
C           3.36900        13.25800        27.04300
O           3.46700        14.38800        26.16400
H           3.51000        14.01600        25.23700
C           3.84000        13.68200        28.42400
O           3.19800        14.82200        29.01400
H           3.69400        14.90000        29.87900
C           4.24800         9.45700        27.33500
O           3.87900         8.89300        26.06800
H           4.08800         7.91500        26.09900
C           3.75600        10.87700        27.56100
O           4.28500        11.27500        28.83500
C           3.72100        12.48700        29.35500
O           4.45500        12.50900        30.58800
C           3.67200        12.27200        31.76700
C           4.07400        10.89200        32.25900
O           3.88700         9.85800        31.28100
H           4.19600        10.26000        30.41800
C           3.51300        10.58000        33.63600
O           3.99700         9.32700        34.14000
H           3.65800         9.25400        35.07800
C           3.43000        14.78100        32.45900
O           4.09700        15.48300        31.39900
H           4.02500        16.48000        31.43800
C           3.94600        13.38500        32.76600
O           3.36000        12.98000        34.01100
C           3.89800        11.75200        34.52400
O           3.18100        11.64400        35.76300
C           3.83700        11.89600        37.01400
C           3.45300        13.26400        37.55600
O           3.33900        14.30400        36.57300
H           3.32700        13.96100        35.63400
C           4.38400        13.60300        38.70800
O           4.41700        14.97000        39.14200
H           4.54900        14.94000        40.13300
C           4.14800         9.58100        37.92000
O           4.11400         8.83600        36.69400
H           4.25800         7.91300        37.05200
C           3.47800        10.92900        38.13000
O           4.15500        11.31800        39.33400
C           3.91300        12.65400        39.79700
O           4.65700        12.71800        41.02200
C           7.86000        23.81200         3.15600
C           7.38900        25.16400         3.66800
O           7.53100        26.09900         2.58900
H           7.24400        25.71700         1.71100
C           7.96000        25.59300         5.01000
O           7.30600        26.73900         5.57300
H           7.84300        27.08800         6.34100
C           8.25800        21.51400         3.89200
O           8.03500        20.89500         2.61700
H           8.34000        19.94300         2.65500
C           7.62600        22.83600         4.29700
O           8.31600        23.22100         5.49500
C           7.74400        24.44400         5.98200
O           8.50300        24.77300         7.15500
C           8.12800        24.34100         8.47100
C           8.66100        23.00100         8.95200
O           8.34400        21.98800         7.98700
H           8.64400        22.39800         7.12600
C           8.03800        22.82400        10.32700
O           8.44800        21.58100        10.91400
H           7.93600        21.37600        11.74900
C           7.83700        26.73900         9.05800
O           8.23100        27.45500         7.87900
H           8.21200        28.44000         8.05400
C           8.47200        25.42400         9.48000
O           7.80600        25.16800        10.72500
C           8.20400        23.93800        11.34800
O           7.25600        23.61000        12.37400
C           7.63500        23.87400        13.73300
C           7.05600        25.17500        14.26300
O           7.36700        26.20600        13.31400
H           7.36400        25.70600        12.44800
C           7.68500        25.64700        15.56400
O           7.27200        26.96200        15.96200
H           7.55900        27.22000        16.88500
C           7.80200        21.47700        14.37900
O           7.22300        20.82000        13.24200
H           7.49400        19.87200        13.40500
C           7.28800        22.84500        14.79600
O           7.71400        23.18500        16.12400
C           7.34800        24.51500        16.52100
O           8.34000        24.65200        17.54900
C           7.85400        24.33600        18.86200
C           8.46200        23.05100        19.39800
O           8.33100        21.95300        18.48300
H           8.42800        22.31000        17.55400
C           7.95500        22.64600        20.77200
O           8.59800        21.51300        21.37400
H           8.17300        21.20100        22.22300
C           7.53300        26.86700        19.56900
O           7.92200        27.53000        18.35700
H           7.78600        28.49800        18.57000
C           8.03900        25.46400        19.86400
O           7.42400        25.08700        21.10500
C           7.99500        23.88800        21.64800
O           7.17200        23.67900        22.80500
C           7.76300        24.06500        24.05400
C           7.18100        25.35700        24.60400
O           7.48800        26.42100        23.69100
H           7.09200        26.20700        22.79800
C           7.73200        25.78400        25.95500
O           7.16600        27.01600        26.42700
H           7.60800        27.33900        27.26400
C           8.07500        21.65200        24.90500
O           7.64500        20.89100        23.76700
H           7.86900        19.92500        23.89700
C           7.51200        23.04300        25.15000
O           8.16000        23.51100        26.34200
C           7.50600        24.64300        26.93300
O           8.42700        24.83200        28.01800
C           7.85800        24.49000        29.29000
C           8.40200        23.17000        29.81100
O           8.14400        22.15400        28.83100
H           8.35600        22.61000        27.96700
C           7.92800        22.76600        31.19800
O           8.65100        21.63700        31.71000
H           8.18500        21.27200        32.51600
C           7.62400        26.93100        30.08700
O           8.06700        27.67400        28.94200
H           7.83300        28.63100        29.11000
C           8.04400        25.50600        30.40500
O           7.35100        25.06300        31.58100
C           8.05600        23.94800        32.14500
O           7.42800        23.72100        33.41500
C           8.01700        23.98900        34.69600
C           7.51900        25.32700        35.21700
O           7.87500        26.30100        34.22500
H           7.65000        25.89000        33.34100
C           8.04700        25.70600        36.59100
O           7.58100        26.96900        37.08800
H           7.85200        27.11300        38.03900
C           8.15600        21.57600        35.38400
O           7.78300        20.94400        34.15100
H           7.85700        19.95700        34.29100
C           7.70700        22.97300        35.78200
O           8.25700        23.27100        37.07400
C           7.68200        24.52300        37.47400
O           8.35300        24.83100        38.70400
C           7.74000        24.45200        39.94500
C           8.30100        23.12000        40.41500
O           7.96000        22.07600        39.49200
H           8.25900        22.32400        38.57100
C           7.77400        22.64700        -0.30900
O           8.69000        21.67500         0.21600
H           8.27800        21.41400         1.08900
C           7.62000        26.86400        40.72600
O           8.15200        27.52300        39.56700
H           8.04700        28.50400        39.72900
C           8.03100        25.43800        -1.00400
O           7.39300        25.01900         0.21100
C           7.93100        23.77900         0.69300
O           7.19400        23.57400         1.90700
C           3.63400        20.50100         0.18400
C           4.00900        19.11700        42.75200
O           3.64800        18.14600        41.75900
H           3.50100        18.60100        40.88100
C           3.53000        18.83400         2.09700
O           3.99900        17.57400         2.59800
H           3.73700        17.59400         3.56300
C           3.52300        22.94700         1.01000
O           3.90100        23.70000        -0.15200
H           3.76100        24.63600         0.17000
C           3.97300        21.51700         1.26200
O           3.49800        21.18600         2.57500
C           4.03200        19.93100         3.02100
O           3.25700        19.95400         4.22900
C           4.03500        20.22900         5.40300