# freq=raman b3lyp/6-31+g(2d,p) geom=connectivity

483 10000.com

0 1
C           8.03700         7.90700        23.92900
C           7.46100         9.22100        24.43100
O           7.81200        10.24200        23.48500
H           7.75900         9.71600        22.63700
C           7.92000         9.57000        25.83700
O           7.39600        10.81600        26.31800
H           7.82300        10.98700        27.20600
C           8.41300         5.48300        24.55400
O           7.87300         4.80400        23.41200
H           8.18100         3.86200        23.54300
C           7.74400         6.79600        24.92400
O           8.36400         7.30000        26.11600
C           7.78000         8.41100        26.81100
O           8.58400         8.70000        27.96400
C           8.07500         8.30200        29.24500
C           8.70100         7.01600        29.76000
O           8.76200         5.93400        28.81900
H           8.87000         6.45600        27.97300
C           8.09100         6.58400        31.08400
O           8.56700         5.32300        31.57400
H           8.05700         5.09000        32.40300
C           7.70900        10.71200        30.06400
O           8.33500        11.46900        29.01800
H           8.18600        12.41800        29.29500
C           8.30800         9.34100        30.32900
O           7.70600         8.84900        31.53500
C           8.27800         7.67400        32.12700
O           7.47500         7.50500        33.30400
C           8.01900         7.88400        34.57700

