# freq=raman b3lyp/6-31+g(d,p) geom=connectivity

350 9000.com

0 1
 O                  7.72300000    7.37900000   22.67400000
 C                  8.30600000    7.89600000   23.87900000
 C                  7.74700000    9.19700000   24.43100000
 O                  7.97700000   10.25000000   23.48400000
 H                  7.63100000    9.90400000   22.61200000
 C                  8.29300000    9.74500000   25.74000000
 O                  7.53800000   10.89200000   26.15500000
 H                  7.77900000   11.08200000   27.10700000
 C                  8.67600000    5.57800000   24.88400000
 O                  8.68300000    4.92800000   23.60400000
 H                  8.90700000    3.96100000   23.72200000
 C                  8.06400000    6.95900000   25.05000000
 O                  8.61300000    7.42000000   26.29300000
 C                  8.13800000    8.67300000   26.80700000
 O                  8.92600000    8.92000000   27.98100000
 C                  8.37100000    8.42800000   29.21000000
 C                  8.87300000    7.09100000   29.73000000
 O                  8.47800000    6.09200000   28.77800000
 H                  8.92100000    6.40200000   27.93700000
 C                  8.32200000    6.70600000   31.09300000
 O                  9.20000000    5.65100000   31.51300000
 H                  8.81800000    5.21800000   32.32900000
 C                  7.86700000   10.85600000   30.03300000
 O                  8.33400000   11.54000000   28.86100000
 H                  8.20800000   12.50200000   29.10200000
 C                  8.46100000    9.48300000   30.30000000
 O                  7.83900000    9.00900000   31.50300000
 C                  8.59400000    7.89500000   32.00100000
 O                  7.78000000    7.58900000   33.14200000
 H                  8.34372633    7.38771799   33.89253193
 H                  9.62295561    8.09251461   32.21811362
 H                  7.29240182    6.41593419   31.06674317
 H                  9.94135910    7.11805959   29.78269361
 H                  7.32713332    8.28992417   29.01979640
 H                  9.49994003    9.62548410   30.51260737
 H                  8.07284378   11.47540640   30.88085850
 H                  6.80583576   10.74634087   29.95050562
 H                  8.42002563    7.11872391   22.06736037
 H                  8.16741362    4.92633558   25.56339191
 H                  9.69401981    5.64577328   25.20640108
 H                  7.00710285    6.84496235   25.17191728
 H                  9.36038011    8.00565733   23.73354262
 H                  6.68964135    9.07641581   24.54214021
 H                  9.32483223   10.00505636   25.62778171
 H                  7.10701632    8.58233806   27.07857513

 1 2 1.0 38 1.0
 2 3 1.0 12 1.0 42 1.0
 3 4 1.0 6 1.0 43 1.0
 4 5 1.0
 5
 6 7 1.0 14 1.0 44 1.0
 7 8 1.0
 8
 9 10 1.0 12 1.0 39 1.0 40 1.0
 10 11 1.0
 11
 12 13 1.0 41 1.0
 13 14 1.0
 14 15 1.0 45 1.0
 15 16 1.0
 16 17 1.0 26 1.0 34 1.0
 17 18 1.0 20 1.0 33 1.0
 18 19 1.0
 19
 20 21 1.0 28 1.0 32 1.0
 21 22 1.0
 22
 23 24 1.0 26 1.0 36 1.0 37 1.0
 24 25 1.0
 25
 26 27 1.0 35 1.0
 27 28 1.0
 28 29 1.0 31 1.0
 29 30 1.0
 30
 31
 32
 33
 34
 35
 36
 37
 38
 39
 40
 41
 42
 43
 44
 45

