# freq=raman b3lyp/6-31+g(2d,p) geom=connectivity

493 5234/5234.com

0 1
C           8.60300         8.15800         2.97000
C           8.03200         9.49100         3.42800
O           8.34800        10.50100         2.45900
H           8.11500        10.19000         1.53800
C           8.46500         9.85900         4.83800
O           7.82600        11.05500         5.30700
H           8.26500        11.24900         6.18500
C           8.61500         5.63800         3.92200
O           8.07400         5.08100         2.71500
H           7.99900         4.09600         2.86900
C           8.26600         7.11400         4.02100
O           8.79700         7.46700         5.30700
C           8.24200         8.69700         5.79200
O           8.99800         8.78800         7.00800
C           8.18400         8.57600         8.17000
C           8.66300         7.18800         8.56300
O           8.10600         6.11200         7.79300
H           8.43900         6.27600         6.86500
C           8.23000         6.80600         9.96900
O           8.78900         5.59600        10.50200
H           8.20200         5.27100        11.24300
C           8.07600        10.89800         8.99600
O           8.39400        11.57000         7.76900
H           8.31800        12.56700         7.75000
C           8.54300         9.49000         9.33000
O           8.03500         9.07800        10.60700
C           8.63800         7.83900        11.00700
O           7.97700         7.56800        12.25200
C           8.58500         7.91200        13.50500
C           7.92600         9.12500        14.14000
O           7.76000        10.11400        13.11300
H           7.53200         9.58600        12.29600
C           8.60000         9.66100        15.39300
O           8.07900        10.90900        15.87200
H           8.63200        11.14100        16.67200
C           8.78000         5.42400        14.22300
O           8.16500         4.76500        13.10600
H           8.03600         3.81500        13.38900
C           8.42100         6.85500        14.58600
O           8.99800         7.22900        15.84500
C           8.56800         8.49400        16.36700
O           9.24500         8.79300        17.59700
C           8.57800         8.40100        18.80500
C           9.12500         7.09100        19.34900
O           9.06000         6.08500        18.32800
H           9.20700         6.44700        17.40800
C           8.46800         6.72900        20.67100
O           8.98900         5.61200        21.40600
H           8.77900         5.64600        22.38300
C           8.41100        10.80100        19.45000
O           8.95700        11.55800        18.36100
H           8.61800        12.49900        18.36300
C           8.86100         9.41900        19.89700
O           8.26200         9.07100        21.15300
C           8.76000         7.83100        21.67700
O           7.90000         7.65200        22.81200
C           8.32400         8.07200        24.11600
C           7.61500         9.35300        24.52400
O           7.55500        10.33800        23.48200
H           7.52400         9.85800        22.60500
C           8.12200         9.81700        25.88000
O           7.33000        10.90600        26.37600
H           7.58500        11.11100        27.32100
C           8.69400         5.61800        24.95400
O           8.00200         5.02200        23.84600
H           7.95600         4.02900        23.95800
C           8.14300         7.01400        25.19200
O           8.75000         7.50200        26.39700
C           8.06100         8.66700        26.87200
O           8.69800         8.94000        28.12800
C           8.08300         8.58800        29.37600
C           8.58700         7.23100        29.84100
O           8.54000         6.26900        28.77700
H           8.81900         6.73000        27.93500
C           7.98400         6.78700        31.16300
O           8.36900         5.50300        31.67600
H           7.99600         5.31000        32.58400
C           7.72000        10.93400        30.12800
O           7.70500        11.58300        28.84800
H           7.79500        12.55200        29.07600
C           8.43900         9.62800        30.42600
O           8.00300         9.23600        31.73500
C           8.38100         7.90400        32.11400
O           7.64000         7.69100        33.32500
C           8.31300         7.97900        34.55900
C           7.86300         9.36000        35.00700
O           8.15800        10.40000        34.06400
H           8.05800        10.03000        33.14000
C           8.37800         9.78800        36.37200
O           7.69500        10.91300        36.94400
H           8.03600        11.04600        37.87500
C           8.27100         5.62700        35.28200
O           7.86600         4.91400        34.10400
H           7.86300         3.91700        34.17900
C           7.81000         7.03100        35.63500
O           8.45500         7.37600        36.87000
C           8.15900         8.68000        37.39000
O           8.94400         8.83900        38.58000
C           8.29100         8.47500        39.80500
C           8.72000         7.12200        40.34700
O           8.18800         6.18600        39.39800
H           8.34100         6.61000        38.50500
C           8.15300         6.81000        -0.34200
O           8.54400         5.50400         0.10600
H           8.37500         5.39500         1.08500
C           8.16300        10.90800        40.74400
O           8.42900        11.66800        39.55600
H           8.05100        12.59300        39.53400
C           8.69600         9.48800        -1.20400
O           8.09100         9.21200         0.06800
C           8.54000         7.95100         0.58600
O           7.83000         7.78100         1.82100
C           4.05000         4.27300         0.27400
C           4.28500         2.85800        42.83800
O           3.83300         1.95000        41.82300
H           4.11100         2.34900        40.94900
C           3.72400         2.55700         2.15400
O           3.90800         1.20000         2.58300
H           3.43400         0.91000         3.41400
C           4.35500         6.74300         1.11900
O           4.65300         7.49500        -0.06600
H           4.66700         8.40000         0.36000
C           4.50800         5.24800         1.34600
O           3.88400         4.94200         2.60200
C           4.18000         3.63800         3.12100
O           3.47600         3.62300         4.37100
C           4.17300         4.02500         5.56000
C           3.82300         5.39700         6.11100
O           4.38800         6.22900         5.08700
H           3.88700         6.00700         4.25100
C           4.58700         5.69400         7.39100
O           4.13600         6.94500         7.93100
H           4.41700         7.01000         8.88900
C           4.33700         1.51700         6.38500
O           3.67200         0.77200         5.35500
H           4.08600        -0.13800         5.34600
C           3.97800         2.97200         6.63900
O           4.68500         3.29200         7.84600
C           4.23300         4.56100         8.34000
O           5.04000         4.76000         9.51000
C           4.41200         4.41500        10.75300
C           4.67500         2.97600        11.16700
O           4.38500         2.02700        10.13000
H           4.54000         2.52600         9.27800
C           3.96900         2.73200        12.49100
O           4.10900         1.41400        13.04100
H           3.87900         1.44000        14.01400
C           4.23300         6.70800        11.54100
O           4.56800         7.43000        10.34800
H           4.25000         8.36800        10.48600
C           4.80000         5.34200        11.89300
O           4.18400         5.03800        13.15300
C           4.44200         3.69000        13.57200
O           3.59400         3.61500        14.72800
C           4.27500         3.94600        15.94700
C           4.06100         5.32300        16.55300
O           4.33200         6.34100        15.57800
H           3.98100         6.02700        14.69600
C           4.68600         5.57200        17.91600
O           4.27800         6.85100        18.42400
H           4.47700         6.98300        19.39500
C           4.42100         1.55600        16.76600
O           4.13500         0.79000        15.58700
H           4.34200        -0.18000        15.71100
C           3.95000         2.97000        17.06600
O           4.44000         3.21300        18.39200
C           4.15700         4.53000        18.88800
O           4.97000         4.57800        20.07000
C           4.28600         4.33400        21.30700
C           4.61900         2.93800        21.80900
O           4.26900         1.91900        20.86100
H           4.50400         2.32300        19.97600
C           3.85500         2.61300        23.08200
O           4.14100         1.26700        23.49000
H           3.91500         1.06700        24.44300
C           4.19600         6.71900        22.19200
O           4.51800         7.58400        21.09300
H           4.12000         8.48200        21.28000
C           4.63700         5.28600        22.43900
O           3.89100         4.95300        23.61900
C           4.16000         3.64800        24.15200
O           3.31900         3.73100        25.31200
C           4.08600         3.83200        26.52100
C           3.63900         5.20100        27.00700
O           3.85800         6.25100        26.05400
H           3.57200         5.92600        25.15200
C           4.25200         5.50000        28.36600
O           3.91800         6.82200        28.81200
H           4.16000         7.00300        29.76500
C           4.20700         1.42500        27.32500
O           4.05300         0.64700        26.12900
H           4.20800        -0.31600        26.35100
C           3.60000         2.80300        27.52900
O           4.01100         3.15300        28.85900
C           3.61500         4.46600        29.28000
O           4.34000         4.68600        30.49900
C           3.74400         4.45100        31.78300
C           4.16500         3.04400        32.17300
O           3.66500         2.07400        31.24100
H           3.79800         2.43900        30.32000
C           3.57600         2.81800        33.55600
O           3.81000         1.47900        34.01500
H           3.74800         1.31400        34.99900
C           3.82200         6.83900        32.47400
O           4.31200         7.55700        31.33200
H           3.97000         8.49000        31.43900
C           4.19500         5.41800        32.86600
O           3.62800         5.07400        34.13800
C           4.05400         3.79200        34.62100
O           3.37800         3.64100        35.87800
C           4.10300         3.95000        37.07700
C           3.74700         5.32800        37.60900
O           4.11400         6.38200        36.70700
H           3.72200         6.08400        35.83700
C           4.42400         5.61000        38.94000
O           4.08700         6.88400        39.50900
H           4.27500         6.99100        40.48500
C           4.23900         1.50100        37.76000
O           3.59500         0.77500        36.70300
H           3.64300        -0.18300        36.98400
C           3.84300         2.91300        38.15800
O           4.36700         3.21400        39.46000
C           4.01100         4.52500        39.92100
O           4.75700         4.63200        41.14200
C           8.07600        16.32900         2.85500
C           7.44200        17.57200         3.45800
O           7.76900        18.65100         2.57000
H           7.52500        18.34300         1.65000
C           7.81900        18.08000         4.84000
O           6.92500        19.06500         5.37700
H           7.25800        19.28600         6.29300
C           8.35500        13.84200         3.61800
O           7.84800        13.18700         2.44600
H           7.88100        12.20800         2.64200
C           7.97800        15.27700         3.94700
O           8.52800        15.72200         5.19500
C           7.81400        16.84700         5.72800
O           8.58700        17.05600         6.91900
C           8.08400        16.65800         8.20400
C           8.69200        15.33000         8.62400
O           8.41400        14.35500         7.60700
H           8.67500        14.75700         6.72900
C           8.16400        14.89400         9.98100
O           8.75200        13.73200        10.58300
H           8.32400        13.56500        11.47100
C           7.68900        19.10400         8.94900
O           8.00200        19.86300         7.77200
H           7.84300        20.83400         7.94900
C           8.35300        17.76300         9.21300
O           7.92700        17.30900        10.50600
C           8.37100        16.02700        10.97300
O           7.55700        15.84500        12.14100
C           8.13900        16.18400        13.40800
C           7.50100        17.46400        13.92100
O           7.41800        18.46300        12.89400
H           7.29300        18.00900        12.01200
C           8.10000        17.85300        15.26300
O           7.43600        18.96100        15.88600
H           7.73300        19.06100        16.83600
C           8.54100        13.70500        14.11400
O           7.97400        12.92400        13.05200
H           8.16800        11.95400        13.19900
C           8.05100        15.09900        14.46900
O           8.65700        15.55400        15.68700
C           7.96800        16.68900        16.23200
O           8.63700        16.93000        17.47800
C           8.01200        16.53400        18.70800
C           8.35900        15.15600        19.24800
O           8.34800        14.11400        18.26200
H           8.55200        14.55800        17.38900
C           7.68800        14.76800        20.55600
O           8.03400        13.51000        21.15300
H           7.60400        13.55400        22.05500
C           7.91400        18.89200        19.59800
O           8.31800        19.65000        18.44900
H           8.31800        20.61100        18.72700
C           8.41200        17.47500        19.83300
O           7.86300        17.13500        21.11400
C           8.14200        15.80400        21.57100
O           7.37700        15.65300        22.77500
C           7.94000        16.10300        24.01600
C           7.40500        17.44300        24.49300
O           7.93200        18.35200        23.51700
H           7.69900        18.02300        22.60200
C           7.88000        17.86000        25.87500
O           7.14600        19.02200        26.28900
H           7.47900        19.14300        27.22400
C           8.34900        13.66300        24.79900
O           7.49800        13.10700        23.78600
H           7.65700        12.12100        23.83600
C           7.79200        15.04500        25.09900
O           8.43800        15.52000        26.28900
C           7.77400        16.67600        26.82200
O           8.51100        16.91900        28.02900
C           7.90200        16.48000        29.25300
C           8.45100        15.14400        29.72500
O           8.08900        14.13400        28.77100
H           8.20800        14.56000        27.87400
C           8.01700        14.79900        31.14000
O           8.73500        13.67400        31.66900
H           8.40100        13.48900        32.59300
C           7.75300        18.93900        29.89800
O           8.16200        19.63600        28.71300
H           8.07600        20.59000        29.00000
C           8.24200        17.55100        30.27700
O           7.69500        17.24700        31.56800
C           8.18100        15.99300        32.06700
O           7.28700        15.74700        33.16200
C           7.81800        16.24500        34.39900
C           7.40800        17.65700        34.78500
O           7.92800        18.64200        33.88000
H           7.86400        18.26200        32.95700
C           7.69200        18.08200        36.21700
O           6.90200        19.20900        36.62000
H           7.28500        19.59400        37.45900
C           7.99700        13.90100        35.18400
O           7.56200        13.00900        34.14800
H           7.87500        12.08300        34.36400
C           7.38200        15.26100        35.47200
O           7.90800        15.67600        36.74000
C           7.45200        16.95400        37.20700
O           8.21400        17.21400        38.39500
C           7.75100        16.83000        39.69800
C           8.26800        15.46300        40.11600
O           7.69100        14.51500        39.20600
H           8.05700        14.82000        38.32700
C           7.93200        15.12700        -0.50500
O           8.50800        13.90100        -0.03000
H           8.35100        13.70800         0.93800
C           7.45700        19.23400        40.33000
O           7.94000        19.93000        39.17200
H           7.85500        20.92200        39.26200
C           8.05900        17.89700        -1.33100
O           7.50800        17.50900        -0.06400
C           8.09000        16.30100         0.44700
O           7.34800        16.05200         1.65000
C           3.93100        12.63000         0.36500
C           4.24700        11.22600        42.91600
O           4.12700        10.22200        41.89700
H           4.52300        10.55700        41.04200
C           3.52600        10.87400         2.14200
O           4.06400         9.61700         2.57800
H           3.81900         9.40700         3.52500
C           4.29600        15.03100         0.95100
O           3.17200        15.68300         0.34100
H           3.49100        16.63000         0.30600
C           4.25700        13.60800         1.48300
O           3.59900        13.24100         2.70400
C           3.97200        11.92700         3.14400
O           3.22200        11.73000         4.35200
C           3.90400        12.08200         5.56400
C           3.55600        13.47700         6.05600
O           4.00800        14.50600         5.16300
H           3.85500        14.28600         4.19900
C           4.12700        13.70700         7.44500
O           3.62000        14.95800         7.93100
H           4.10400        15.23500         8.76100
C           4.24400         9.68300         6.30500
O           3.74900         8.96300         5.16700
H           3.96300         8.00100         5.33900
C           3.60500        11.02700         6.61700
O           4.25900        11.27400         7.87000
C           3.81700        12.54300         8.37300
O           4.59300        12.79400         9.55300
C           3.92600        12.49200        10.78700
C           4.12400        11.07300        11.29600
O           3.77900        10.13500        10.26600
H           3.99800        10.58300         9.39900
C           3.44700        10.85200        12.63900
O           3.80800         9.54100        13.09700
H           3.67000         9.37500        14.07300
C           3.88200        14.93300        11.55300
O           4.25700        15.74500        10.43000
H           3.95800        16.68200        10.61100
C           4.27900        13.50100        11.86800
O           3.67600        13.27000        13.14900
C           3.99700        11.93200        13.55600
O           3.37900        11.79800        14.84400
C           4.14900        12.05200        16.02700
C           3.89400        13.47900        16.48400
O           4.43100        14.46700        15.59300
H           4.19400        14.10600        14.69000
C           4.27300        13.70400        17.93900
O           3.73200        14.97800        18.31700
H           3.96500        15.15800        19.27200
C           4.36000         9.70500        16.85100
O           4.07100         8.92100        15.68500
H           4.26300         7.99100        15.99800
C           3.69100        11.05200        17.07600
O           4.09300        11.31900        18.42700
C           3.84100        12.63800        18.93300
O           4.50000        12.73200        20.20400
C           3.67000        12.42400        21.33400
C           4.02400        11.03500        21.84000
O           3.62900        10.05200        20.87300
H           3.84400        10.46200        19.98600
C           3.46500        10.74700        23.22300
O           3.76900         9.43200        23.71200
H           3.57400         9.38100        24.69100
C           3.61200        14.79900        21.98200
O           4.17500        15.61400        20.94400
H           3.90400        16.56500        21.09300
C           4.12100        13.42500        22.38500
O           3.58100        13.13100        23.68200
C           3.93700        11.83200        24.17800
O           3.12500        11.83900        25.36100
C           3.86600        11.92100        26.58700
C           3.62400        13.34900        27.04900
O           4.07200        14.29900        26.07200
H           3.68700        13.97800        25.20700
C           4.20200        13.60100        28.43200
O           3.66000        14.85100        28.88400
H           3.85000        14.93100        29.86200
C           3.85000         9.53600        27.26900
O           3.38800         8.80000        26.12700
H           3.50400         7.82400        26.30700
C           3.37600        10.93300        27.63300
O           3.95100        11.22100        28.91600
C           3.68200        12.54600        29.39600
O           4.38900        12.72300        30.63200
C           3.63800        12.40200        31.81200
C           3.86900        10.99300        32.33300
O           3.32100        10.07900        31.37200
H           3.64700        10.37800        30.47500
C           3.37200        10.71700        33.74300
O           3.73600         9.45500        34.32000
H           3.36600         9.25300        35.22700
C           3.56200        14.91900        32.54200
O           4.01200        15.52800        31.32300
H           4.23300        16.48000        31.53300
C           3.94800        13.47900        32.83900
O           3.42600        13.11900        34.12500
C           3.82200        11.84600        34.65600
O           3.23400        11.78100        35.96300
C           3.96000        12.17700        37.13600
C           3.55900        13.57000        37.59200
O           3.82800        14.52500        36.55400
H           3.54000        14.19000        35.65700
C           4.09200        13.88900        38.97900
O           3.53900        15.12100        39.46600
H           3.33900        15.04300        40.44200
C           3.94800         9.69700        37.94800
O           3.48100         9.00600        36.78000
H           3.83400         8.07400        36.86400
C           3.64500        11.16100        38.22200
O           4.31600        11.47800        39.45000
C           3.86900        12.74500        39.95400
O           4.56400        12.97400        41.18900
C           7.65900        24.54300         3.14200
C           7.00000        25.77200         3.74500
O           6.95000        26.78400         2.72800
H           6.54700        26.43100         1.88300
C           7.57800        26.18800         5.08800
O           6.85800        27.26500         5.70500
H           7.46000        27.54300         6.45400
C           8.27700        22.16900         3.79100
O           7.54800        21.34300         2.87200
H           7.82600        20.40400         3.07500
C           7.54400        23.44200         4.18300
O           8.21500        23.89100         5.36900
C           7.55100        24.98500         6.01800
O           8.41600        25.26700         7.12700
C           7.81600        24.84100         8.35900
C           8.30300        23.47800         8.82000
O           7.90600        22.47400         7.87400
H           8.19200        22.78900         6.96900
C           7.82100        23.14200        10.22200
O           8.34500        22.00000        10.91400
H           7.75300        21.82700        11.70200
C           7.81400        27.33300         9.11500
O           8.33000        27.96800         7.93600
H           8.20500        28.94100         8.13100
C           8.12000        25.87800         9.42800
O           7.54300        25.54100        10.69800
C           7.98800        24.27900        11.21700
O           7.13900        24.10100        12.36000
C           7.78400        24.41200        13.60400
C           7.16600        25.71000        14.09900
O           7.37000        26.74600        13.12800
H           7.39100        26.28800        12.23900
C           7.76300        26.07600        15.44800
O           7.21600        27.19400        16.16200
H           7.63900        27.25700        17.06700
C           8.20900        21.99300        14.20500
O           7.38700        21.26800        13.27900
H           7.71400        20.32600        13.35000
C           7.57100        23.30700        14.62600
O           8.17700        23.66600        15.87600
C           7.64400        24.89300        16.39500
O           8.37000        25.28500        17.56900
C           7.82700        24.73200        18.77700
C           8.34900        23.40500        19.30400
O           8.19800        22.38600        18.30500
H           8.39200        22.79800        17.41500
C           7.70600        22.91300        20.59100
O           8.16000        21.64700        21.09300
H           8.05900        21.67700        22.08700
C           7.53200        27.07300        19.71500
O           7.99400        27.86400        18.61000
H           7.89300        28.84600        18.76700
C           8.05900        25.66800        19.95200
O           7.43200        25.26200        21.17700
C           7.94300        23.99900        21.62800
O           7.24600        23.90700        22.87900
C           7.95900        24.25100        24.07600
C           7.47400        25.58800        24.61400
O           7.82500        26.63200        23.69400
H           7.61700        26.27100        22.78500
C           8.05400        25.95300        25.97100
O           7.31800        27.06700        26.49600
H           7.65200        27.26700        27.41800
C           8.10800        21.76900        24.79800
O           7.57300        21.10600        23.64400
H           7.68000        20.13000        23.83600
C           7.69700        23.19300        25.13500
O           8.44500        23.51900        26.31600
C           7.94900        24.74100        26.88300
O           8.60700        25.04300        28.12300
C           7.91500        24.73300        29.34100
C           8.34400        23.33100        29.74300
O           7.97100        22.30700        28.81000
H           8.22500        22.70700        27.92900
C           7.86800        23.03700        31.15600
O           8.38800        21.78500        31.62600
H           8.05900        21.66200        32.56200
C           7.50700        27.07500        30.08300
O           8.04400        27.78100        28.95500
H           8.04200        28.77700        29.04400
C           8.20600        25.76700        30.41700
O           7.61500        25.41700        31.67700
C           8.04600        24.14500        32.18100
O           7.19800        23.97100        33.32600
C           7.75500        24.41700        34.57000
C           7.29400        25.77400        35.07700
O           7.50600        26.79000        34.08600
H           7.29200        26.33500        33.22200
C           7.86000        26.18100        36.42800
O           7.24300        27.38700        36.90200
H           7.53000        27.48700        37.85500
C           7.91800        21.96200        35.42100
O           7.22200        21.27400        34.37200
H           7.34000        20.29200        34.51800
C           7.54100        23.41000        35.68900
O           8.20400        23.81600        36.89600
C           7.60100        25.02500        37.38000
O           8.37400        25.22600        38.57200
C           7.68400        24.91100        39.79100
C           8.15200        23.54400        40.26200
O           7.75500        22.52200        39.33700
H           8.08900        22.83600        38.44800
C           7.79800        23.21900        -0.36000
O           8.48900        22.11200         0.23700
H           7.94000        21.75000         0.99100
C           7.60000        27.37200        40.64700
O           8.07800        27.91300        39.40700
H           7.90900        28.89900        39.41300
C           7.93800        25.91200        -1.16100
O           7.31000        25.54600         0.07700
C           7.93500        24.37400         0.61900
O           7.20500        24.16000         1.83500
C           3.68900        20.61100         0.36800
C           4.08200        19.24800         0.91500
O           3.59600        18.24400         0.01300
H           3.85700        18.52200        -0.91100
C           3.58200        18.94200         2.31700
O           4.01100        17.67200         2.83000
H           3.47800        17.47500         3.65300
C           3.77300        23.11100         1.06100
O           4.26300        23.79300        -0.10300
H           3.94400        24.74000        -0.15200
C           4.06000        21.65800         1.40500
O           3.43100        21.36500         2.66100
C           3.85500        20.12100         3.23700
O           2.94200        19.98400         4.33500
C           3.50600        20.29200         5.61800