# freq=raman b3lyp/6-31+g(d,p) geom=connectivity

450K 7000ps Cellobiose Unit 1

0 1
 O(PDBName=O1,ResName=GLC,ResNum=6)                   10.26800000    7.84700000   32.24200000
 C(PDBName=C4,ResName=GLC,ResNum=7)                   11.17200000    7.74900000   33.35200000
 C(PDBName=C3,ResName=GLC,ResNum=7)                   11.52100000    9.15200000   33.82000000
 O(PDBName=O3,ResName=GLC,ResNum=7)                   12.61300000    9.77400000   33.12800000
 H(PDBName=HO3,ResName=GLC,ResNum=7)                  12.49200000    9.89200000   32.14200000
 C(PDBName=C2,ResName=GLC,ResNum=7)                   12.10800000    9.33400000   35.21100000
 O(PDBName=O2,ResName=GLC,ResNum=7)                   12.02300000   10.69700000   35.65300000
 H(PDBName=HO2,ResName=GLC,ResNum=7)                  12.28400000   11.18300000   34.81900000
 C(PDBName=C6,ResName=GLC,ResNum=7)                   10.04300000    5.54500000   34.06100000
 O(PDBName=O6,ResName=GLC,ResNum=7)                    9.42700000    4.79800000   35.12000000
 H(PDBName=HO6,ResName=GLC,ResNum=7)                   9.21600000    3.90200000   34.72800000
 C(PDBName=C5,ResName=GLC,ResNum=7)                   10.39700000    6.98100000   34.41100000
 O(PDBName=O5,ResName=GLC,ResNum=7)                   11.23900000    7.18900000   35.55400000
 C(PDBName=C1,ResName=GLC,ResNum=7)                   11.27300000    8.49000000   36.16000000
 O(PDBName=O1,ResName=GLC,ResNum=7)                   11.79000000    8.33000000   37.48900000
 C(PDBName=C4,ResName=GLC,ResNum=8)                   10.90300000    8.29100000   38.61600000
 C(PDBName=C3,ResName=GLC,ResNum=8)                   10.44400000    6.98100000   39.23500000
 O(PDBName=O3,ResName=GLC,ResNum=8)                    9.75600000    6.43700000   38.10000000
 H(PDBName=HO3,ResName=GLC,ResNum=8)                  10.39600000    6.73700000   37.39300000
 C(PDBName=C2,ResName=GLC,ResNum=8)                    9.72500000    7.01300000   40.57400000
 O(PDBName=O2,ResName=GLC,ResNum=8)                    9.01600000    5.83200000   40.97500000
 H(PDBName=HO2,ResName=GLC,ResNum=8)                   8.20500000    5.61300000   40.43300000
 C(PDBName=C6,ResName=GLC,ResNum=8)                   12.30200000   10.20000000   39.29000000
 O(PDBName=O6,ResName=GLC,ResNum=8)                   11.55600000   11.42200000   39.20300000
 H(PDBName=HO6,ResName=GLC,ResNum=8)                  12.24400000   12.13000000   39.04100000
 C(PDBName=C5,ResName=GLC,ResNum=8)                   11.64500000    8.92100000   39.78400000
 O(PDBName=O5,ResName=GLC,ResNum=8)                   10.98100000    8.97300000   41.05500000
 C(PDBName=C1,ResName=GLC,ResNum=8)                   10.67800000    7.66500000   41.56300000
 O(PDBName=O1,ResName=GLC,ResNum=8)                   10.16600000    7.99000000   42.86300000
 H                                                    10.76928122    7.91900410   31.42644341
 H                                                    10.89726763    8.14085007   43.46640029
 H                                                    10.93960733    5.03889925   33.76969719
 H                                                     9.37496254    5.55731150   33.22525221
 H                                                     9.47912276    7.50275096   34.58471617
 H                                                    12.05530161    7.21461880   33.07072611
 H                                                    10.65351061    9.77139430   33.72665729
 H                                                    13.12610447    9.00517423   35.22639159
 H                                                    10.28024303    8.88611140   36.20928848
 H                                                    10.04131559    8.88499890   38.39336739
 H                                                    11.32015894    6.38434521   39.38076893
 H                                                     8.94968691    7.73811192   40.43982733
 H                                                    11.57425194    7.08722921   41.65139325
 H                                                    12.46590396    8.25714818   39.95811907
 H                                                    12.68557290    9.99719775   38.31191867
 H                                                    13.13886552   10.38907614   39.92937964

 1 2 1.0 30 1.0
 2 3 1.0 12 1.0 35 1.0
 3 4 1.0 6 1.0 36 1.0
 4 5 1.0
 5
 6 7 1.0 14 1.0 37 1.0
 7 8 1.0
 8
 9 10 1.0 12 1.0 32 1.0 33 1.0
 10 11 1.0
 11
 12 13 1.0 34 1.0
 13 14 1.0
 14 15 1.0 38 1.0
 15 16 1.0
 16 17 1.0 26 1.0 39 1.0
 17 18 1.0 20 1.0 40 1.0
 18 19 1.0
 19
 20 21 1.0 28 1.0 41 1.0
 21 22 1.0
 22
 23 24 1.0 26 1.0 44 1.0 45 1.0
 24 25 1.0
 25
 26 27 1.0 43 1.0
 27 28 1.0
 28 29 1.0 42 1.0
 29 31 1.0
 30
 31
 32
 33
 34
 35
 36
 37
 38
 39
 40
 41
 42
 43
 44
 45


