# freq=raman b3lyp/6-31+g(2df,p) geom=connectivity

550 9000.com

0 1
 O                  9.50300000    7.57000000   12.08800000
 C                 10.19600000    7.46800000   13.34000000
 C                 10.54400000    8.83600000   13.90400000
 O                 11.32900000    9.54600000   12.93500000
 H                 10.94600000    9.36200000   12.03000000
 C                 11.25100000    8.77400000   15.24900000
 O                 11.48000000   10.04500000   15.87400000
 H                 11.81400000   10.52100000   15.06000000
 C                  8.51400000    5.57500000   14.11200000
 O                  9.25300000    4.61600000   13.34200000
 H                  9.25400000    4.86200000   12.37300000
 C                  9.30100000    6.84400000   14.39900000
 O                 10.19200000    6.53600000   15.48100000
 C                 10.39100000    7.82800000   16.07100000
 O                 11.01000000    7.43000000   17.30400000
 C                 10.13500000    7.69200000   18.41100000
 C                  9.61000000    6.34400000   18.87700000
 O                  8.83300000    5.65100000   17.88900000
 H                  9.34800000    5.37600000   17.07800000
 C                  8.92700000    6.35200000   20.23500000
 O                  8.44900000    5.08800000   20.71500000
 H                  7.84400000    4.59400000   20.09000000
 C                 11.74300000    9.57000000   19.04900000
 O                 11.18800000   10.85300000   18.72400000
 H                 11.30500000   10.80900000   17.73200000
 C                 10.94200000    8.36300000   19.51000000
 O                 10.22000000    8.36000000   20.75000000
 C                  9.85900000    7.05000000   21.21200000
 O                  9.14100000    7.24500000   22.44000000
 H                 10.14091838    7.62825317   11.37297083
 H                  8.23445829    5.12643390   15.04234665
 H                  7.62595664    5.83566168   13.57503215
 H                  8.61243972    7.59171947   14.73321600
 H                 11.08461569    6.88393352   13.22113660
 H                  9.62954168    9.37422542   14.04176567
 H                 12.20261782    8.30823988   15.09936364
 H                  9.44372428    8.28282195   16.27275656
 H                  9.76477919    7.35944273   23.16069576
 H                 10.73456097    6.45877080   21.38153174
 H                  8.06550263    6.97882143   20.13591829
 H                 10.48433735    5.74229014   19.01257079
 H                  9.32578263    8.32160176   18.10494631
 H                 11.71535248    7.64878134   19.70161848
 H                 12.27937311    9.25251848   18.17928201
 H                 12.47100269    9.74911143   19.81243381

 1 2 1.0 30 1.0
 2 3 1.0 12 1.0 34 1.0
 3 4 1.0 6 1.0 35 1.0
 4 5 1.0
 5
 6 7 1.0 14 1.0 36 1.0
 7 8 1.0
 8
 9 10 1.0 12 1.0 31 1.0 32 1.0
 10 11 1.0
 11
 12 13 1.0 33 1.0
 13 14 1.0
 14 15 1.0 37 1.0
 15 16 1.0
 16 17 1.0 26 1.0 42 1.0
 17 18 1.0 20 1.0 41 1.0
 18 19 1.0
 19
 20 21 1.0 28 1.0 40 1.0
 21 22 1.0
 22
 23 24 1.0 26 1.0 44 1.0 45 1.0
 24 25 1.0
 25
 26 27 1.0 43 1.0
 27 28 1.0
 28 29 1.0 39 1.0
 29 38 1.0
 30
 31
 32
 33
 34
 35
 36
 37
 38
 39
 40
 41
 42
 43
 44
 45

