# freq=raman b3lyp/6-31+g(d,p) geom=connectivity

320 5000.com

0 1
 O                  7.83100000    7.66700000   22.76400000
 C                  8.52800000    7.87000000   24.00200000
 C                  8.19700000    9.27800000   24.47100000
 O                  8.43600000   10.31500000   23.50900000
 H                  8.18400000    9.97000000   22.60400000
 C                  8.65400000    9.67600000   25.86500000
 O                  7.99600000   10.93200000   26.08700000
 H                  8.10900000   11.15100000   27.05600000
 C                  8.52900000    5.49800000   24.82600000
 O                  8.16200000    4.81400000   23.61900000
 H                  8.23700000    3.85500000   23.89400000
 C                  8.13200000    6.93300000   25.13100000
 O                  8.66200000    7.28600000   26.41700000
 C                  8.21700000    8.58600000   26.83000000
 O                  9.06600000    8.80000000   27.96700000
 C                  8.33600000    8.43800000   29.14800000
 C                  8.95100000    7.10600000   29.54600000
 O                  8.52900000    6.04700000   28.67500000
 H                  8.71900000    6.37600000   27.74900000
 C                  8.48700000    6.82600000   30.96600000
 O                  9.07300000    5.62500000   31.49000000
 H                  8.79900000    5.43100000   32.43200000
 C                  7.85800000   10.77400000   29.86300000
 O                  8.33100000   11.60800000   28.79500000
 H                  8.23700000   12.58600000   28.98000000
 C                  8.65700000    9.51800000   30.16900000
 O                  8.31500000    9.14900000   31.51300000
 C                  8.93100000    7.92000000   31.92300000
 O                  8.13300000    7.69300000   33.09500000
 H                  8.70762605    7.54676758   33.84999734
 H                  8.46677480    7.55060800   22.05418079
 H                  8.15610811    4.90403965   25.63412297
 H                  9.59711332    5.46317341   24.87911352
 H                  7.06509014    6.96089109   25.20732456
 H                  9.58145191    7.79242327   23.83135146
 H                  7.13065775    9.26004449   24.55755517
 H                  9.71668165    9.79834258   25.89029835
 H                  7.17592698    8.62248283   27.07440944
 H                  7.82668507   11.36736559   30.75285204
 H                  6.85735529   10.47668670   29.62802135
 H                  9.70142729    9.74579866   30.12231592
 H                  7.28568403    8.35773140   28.96013483
 H                 10.01801639    7.18330729   29.52601004
 H                  7.42039378    6.74312008   30.98554736
 H                  9.98420597    7.97721471   32.10295461

 1 2 1.0 31 1.0
 2 3 1.0 12 1.0 35 1.0
 3 4 1.0 6 1.0 36 1.0
 4 5 1.0
 5
 6 7 1.0 14 1.0 37 1.0
 7 8 1.0
 8
 9 10 1.0 12 1.0 32 1.0 33 1.0
 10 11 1.0
 11
 12 13 1.0 34 1.0
 13 14 1.0
 14 15 1.0 38 1.0
 15 16 1.0
 16 17 1.0 26 1.0 42 1.0
 17 18 1.0 20 1.0 43 1.0
 18 19 1.0
 19
 20 21 1.0 28 1.0 44 1.0
 21 22 1.0
 22
 23 24 1.0 26 1.0 39 1.0 40 1.0
 24 25 1.0
 25
 26 27 1.0 41 1.0
 27 28 1.0
 28 29 1.0 45 1.0
 29 30 1.0
 30
 31
 32
 33
 34
 35
 36
 37
 38
 39
 40
 41
 42
 43
 44
 45

