# freq=raman b3lyp/6-31+g(2d,p) geom=connectivity

483 5000.com

0 1
C           8.39200         8.09600        24.11100
C           7.91300         9.44900        24.60900
O           8.31200        10.39700        23.60900
H           7.90800        10.04700        22.76300
C           8.45000         9.85900        25.97100
O           7.78000        11.04600        26.41700
H           7.79900        11.22900        27.40000
C           8.67100         5.63900        24.99800
O           8.47700         5.00200        23.72700
H           8.75000         4.05000        23.86700
C           8.12000         7.04400        25.17400
O           8.69200         7.38600        26.44500
C           8.23700         8.67100        26.89500
O           8.87100         9.01300        28.13600
C           8.19900         8.49800        29.29500
C           8.80200         7.20700        29.82400
O           8.69200         6.11400        28.90100
H           8.90300         6.50800        28.00600
C           8.15900         6.82900        31.14900
O           8.79200         5.61800        31.58600
H           8.46000         5.37900        32.49900
C           7.61100        10.81300        29.98300
O           8.26100        11.64400        29.01100
H           8.14800        12.62100        29.19000
C           8.24500         9.50600        30.43100
O           7.60700         9.08900        31.64700
C           8.35500         7.96700        32.13700
O           7.50400         7.75800        33.27400
C           7.98800         8.15000        34.56600

