# freq=raman b3lyp/6-31+g(2d,p) geom=connectivity

500 8510/8510.com

0 1
 O                  8.41500000    6.71400000   12.21200000
 C                  9.38200000    6.88000000   13.26000000
 C                  8.95300000    8.16700000   13.94400000
 O                  9.29400000    9.38200000   13.26100000
 H                  9.38200000    9.21100000   12.28000000
 C                  9.43500000    8.42800000   15.36200000
 O                  8.89500000    9.65800000   15.86600000
 H                  9.31300000   10.49200000   15.50600000
 C                  9.48800000    4.41300000   13.80700000
 O                  8.84800000    3.30600000   14.45900000
 H                  8.89900000    2.46200000   13.92300000
 C                  9.10200000    5.80000000   14.29300000
 O                  9.65400000    5.98200000   15.60500000
 C                  9.06200000    7.17500000   16.13800000
 O                  9.87200000    7.26100000   17.32000000
 C                  9.17400000    7.02400000   18.55100000
 C                  9.12900000    5.54900000   18.91500000
 O                  8.67900000    4.64800000   17.89200000
 H                  8.74800000    5.25600000   17.10100000
 C                  8.56600000    5.25100000   20.29500000
 O                  8.45900000    3.89400000   20.74900000
 H                  7.85700000    3.55600000   20.02500000
 C                  9.92700000    9.09300000   19.37200000
 O                 10.54500000   10.07700000   20.21400000
 H                 10.17200000   10.98800000   20.03700000
 C                  9.98200000    7.61000000   19.69700000
 O                  9.45100000    7.45100000   21.02100000
 C                  9.34200000    6.05300000   21.32600000
 O                  8.69400000    6.03800000   22.60700000
 H                  9.35721774    6.02987320   23.30102895
 H                 10.32350259    5.63854316   21.42488472
 H                  7.56954574    5.64084235   20.29636424
 H                 10.16393596    5.29717540   19.01694085
 H                  8.18975714    7.44282085   18.52352109
 H                 10.99235701    7.26010107   19.65638661
 H                  8.89195849    9.35470030   19.30057149
 H                 10.35194588    9.21085046   18.39709884
 H                  8.86841781    6.58161886   11.37624434
 H                 10.54523597    4.30228831   13.92904521
 H                  9.26523423    4.35497483   12.76205575
 H                  8.03963437    5.78648730   14.41987270
 H                 10.39455532    6.89511129   12.91445207
 H                  7.88449390    8.13381223   13.98975243
 H                 10.50171495    8.51045979   15.34718113
 H                  8.01692416    7.08398862   16.34879238

 1 2 1.0 38 1.0
 2 3 1.0 12 1.0 42 1.0
 3 4 1.0 6 1.0 43 1.0
 4 5 1.0
 5
 6 7 1.0 14 1.0 44 1.0
 7 8 1.0
 8
 9 10 1.0 12 1.0 39 1.0 40 1.0
 10 11 1.0
 11
 12 13 1.0 41 1.0
 13 14 1.0
 14 15 1.0 45 1.0
 15 16 1.0
 16 17 1.0 26 1.0 34 1.0
 17 18 1.0 20 1.0 33 1.0
 18 19 1.0
 19
 20 21 1.0 28 1.0 32 1.0
 21 22 1.0
 22
 23 24 1.0 26 1.0 36 1.0 37 1.0
 24 25 1.0
 25
 26 27 1.0 35 1.0
 27 28 1.0
 28 29 1.0 31 1.0
 29 30 1.0
 30
 31
 32
 33
 34
 35
 36
 37
 38
 39
 40
 41
 42
 43
 44
 45

