# freq=raman b3lyp/6-31+g(2d,p) geom=connectivity

473 8479/8479.com

0 1
C           8.62700         7.75700         2.93500
C           8.24500         9.17700         3.31800
O           8.46200        10.30300         2.45500
H           8.43500        10.05600         1.48700
C           8.75200         9.46600         4.72100
O           8.33600        10.77200         5.14700
H           8.63000        10.95500         6.08500
C           8.49100         5.32300         3.74700
O           8.31600         4.70000         2.46600
H           8.28800         3.71400         2.62800
C           8.11800         6.77700         3.98000
O           8.65100         7.09700         5.27300
C           8.21200         8.40600         5.66700
O           8.83800         8.52100         6.95300
C           8.18100         8.12500         8.16600
C           8.59000         6.73100         8.61300
O           8.24800         5.71100         7.66400
H           8.45800         6.00800         6.73200
C           8.06500         6.39800        10.00100
O           8.61100         5.21400        10.59900
H           8.32700         5.07500        11.54700
C           8.29300        10.54300         8.91700
O           8.80500        11.22800         7.76500
H           8.77100        12.22400         7.83900
C           8.53100         9.08800         9.28800
O           7.87000         8.70300        10.50300
C           8.41400         7.47700        11.01300
O           7.61700         7.34300        12.19800
C           8.05900         7.79500        13.48700
C           7.55900         9.14300        13.98200
O           7.82600        10.18300        13.03000
H           7.87400         9.79900        12.10800
C           8.08700         9.53600        15.35100
O           7.45600        10.75600        15.76500
H           7.73800        11.05200        16.67700
C           8.07200         5.35700        14.20300
O           7.68300         4.69400        12.99200
H           7.92700         3.73300        13.12400
C           7.66300         6.78100        14.54700
O           8.18000         7.15500        15.83300
C           7.74700         8.42800        16.33500
O           8.63200         8.42300        17.46400
C           8.00700         8.22500        18.74100
C           8.50800         6.87700        19.23500
O           8.26300         5.82500        18.29000
H           8.51500         6.28700        17.43900
C           8.10600         6.53800        20.66100
O           8.77600         5.34500        21.09500
H           8.32200         5.16400        21.96700
C           7.60700        10.59400        19.61700
O           7.96600        11.33600        18.44300
H           7.97100        12.33400        18.51100
C           8.34300         9.27500        19.78800
O           7.92000         8.88100        21.10100
C           8.47200         7.66100        21.61700
O           7.65300         7.42500        22.77200
C           8.23000         7.73500        24.04900
C           7.61700         9.05300        24.49400
O           8.04400        10.04900        23.55300
H           7.78000         9.91900        22.59700
C           8.10000         9.42800        25.88600
O           7.33400        10.48200        26.48700
H           7.65800        10.69900        27.40800
C           8.30900         5.18600        24.60200
O           7.91500         4.45500        23.43200
H           8.13000         3.48200        23.51400
C           7.91700         6.59800        25.00700
O           8.49700         7.01100        26.25300
C           7.86900         8.20100        26.75300
O           8.52600         8.40900        28.01200
C           7.95800         8.10800        29.29400
C           8.58100         6.76600        29.64000
O           8.07700         5.77400        28.73300
H           8.22900         6.08000        27.79300
C           8.21800         6.42100        31.07500
O           8.88700         5.31600        31.70000
H           8.36500         4.92700        32.45900
C           7.84100        10.55400        29.98100
O           8.15700        11.33100        28.81600
H           8.14700        12.31500        28.99600
C           8.35900         9.16400        30.31200
O           7.84400         8.79900        31.60000
C           8.44700         7.57300        32.03900
O           7.58100         7.30200        33.15100
C           8.10000         7.74700        34.41200
C           7.58700         9.05500        34.99300
O           7.95000        10.07700        34.05400
H           7.70000         9.82900        33.11700
C           8.16800         9.53200        36.31400
O           7.57500        10.70200        36.89700
H           8.12400        10.78300        37.73000
C           8.07700         5.32700        35.26400
O           7.59900         4.63900        34.09900
H           7.59200         3.65800        34.29300
C           7.80300         6.79300        35.55800
O           8.44400         7.14100        36.79400
C           7.99800         8.40200        37.31500
O           8.67600         8.88000        38.48600
C           8.40700         8.39200        39.80900
C           9.21500         7.17000        40.21600
O           8.97500         6.06400        39.33400
H           8.88300         6.53600        38.45700
C           8.96000         6.61400        -0.45900
O           9.71300         5.45400        -0.07900
H           9.33600         5.06700         0.76300
C           8.43000        10.84700        40.60200
O           9.09700        11.54200        39.53800
H           8.90000        12.52000        39.60400
C           8.82700         9.39800        -1.20000
O           8.26800         8.87800         0.01500
C           8.96100         7.74400         0.55700
O           8.05700         7.49500         1.64400
C           4.26100         4.27100         0.26900
C           4.68500         2.91400        42.85600
O           4.42800         1.93100        41.84300
H           4.54600         2.42000        40.97800
C           3.96700         2.53600         2.07100
O           4.12300         1.17400         2.49700
H           4.00400         1.04900         3.48200
C           4.08800         6.63500         1.07300
O           4.49000         7.46400        -0.02800
H           4.19000         8.39300         0.19000
C           4.67500         5.25900         1.34700
O           4.06200         4.92500         2.60100
C           4.17000         3.59900         3.13800
O           3.31500         3.49600         4.28500
C           4.05000         3.76600         5.48800
C           3.71400         5.15900         5.99500
O           4.54600         6.10900         5.31300
H           4.41900         5.85400         4.35400
C           4.21000         5.48000         7.39500
O           3.64400         6.68700         7.92700
H           3.91100         6.95200         8.85300
C           4.25800         1.36100         6.19200
O           3.99800         0.73300         4.92800
H           4.18300        -0.24200         5.05300
C           3.71300         2.73400         6.55200
O           4.35400         3.01000         7.80600
C           3.96700         4.29500         8.31500
O           4.58300         4.40900         9.60600
C           3.82000         4.13400        10.79000
C           4.17200         2.74800        11.30700
O           3.98900         1.77800        10.26600
H           4.18100         2.28200         9.42400
C           3.61600         2.48500        12.69700
O           4.02800         1.16200        13.07000
H           3.74200         0.98400        14.01200
C           3.98800         6.62200        11.65500
O           4.26000         7.24900        10.39300
H           4.50000         8.20500        10.55900
C           4.23400         5.13600        11.85600
O           3.82700         4.86500        13.20500
C           4.09600         3.53800        13.68100
O           3.24500         3.51600        14.83700
C           3.90600         3.80700        16.07700
C           3.46700         5.14400        16.65100
O           3.58600         6.12200        15.60700
H           3.66100         5.72900        14.69100
C           4.21300         5.35000        17.96000
O           3.97100         6.64500        18.52800
H           4.45900         6.80900        19.38500
C           4.18500         1.40700        16.60900
O           3.47800         0.62600        15.63400
H           3.69600        -0.34100        15.76100
C           3.55200         2.71000        17.06900
O           4.08500         2.98000        18.37400
C           3.69200         4.26200        18.88500
O           4.40300         4.32800        20.13000
C           3.64400         4.18200        21.33900
C           4.01900         2.81800        21.89700
O           4.02500         1.79900        20.88600
H           4.10300         2.22900        19.98700
C           3.42100         2.46200        23.24800
O           3.55900         1.06800        23.55900
H           3.46900         0.95900        24.54900
C           3.54800         6.51600        22.27300
O           4.27200         7.37200        21.37700
H           3.93700         8.31400        21.39600
C           4.00800         5.08600        22.50600
O           3.41800         4.74300        23.76900
C           4.01300         3.50400        24.18300
O           3.26100         3.42600        25.40300
C           4.05500         3.70200        26.56600
C           3.72100         5.09200        27.08400
O           3.91100         6.10800        26.08900
H           3.41400         5.81500        25.27200
C           4.43600         5.31700        28.40600
O           4.43400         6.63700        28.97100
H           4.57700         6.61200        29.96000
C           4.00200         1.22400        27.30500
O           3.79800         0.51000        26.07700
H           3.88000        -0.47700        26.22100
C           3.62300         2.66700        27.59200
O           3.98500         2.99700        28.94100
C           3.76600         4.35000        29.36800
O           4.50500         4.48300        30.59100
C           3.83800         4.33400        31.85200
C           4.12100         2.90400        32.28000
O           3.68200         1.87400        31.38200
H           3.95300         2.10900        30.44800
C           3.60000         2.62200        33.68000
O           3.90400         1.34500        34.26000
H           3.57700         1.34100        35.20500
C           3.71300         6.65600        32.62900
O           4.14300         7.36200        31.45600
H           3.73900         8.27500        31.49700
C           4.31500         5.29300        32.93100
O           3.82400         4.92800        34.22800
C           4.22300         3.61400        34.64800
O           3.56100         3.60500        35.92200
C           4.28900         3.80600        37.14200
C           4.09800         5.23400        37.62500
O           4.13600         6.20800        36.57200
H           3.84600         5.81300        35.70000
C           4.93700         5.48600        38.86700
O           4.50500         6.74300        39.40800
H           4.64700         6.72000        40.39800
C           4.00900         1.35900        38.03600
O           3.43800         0.76200        36.86300
H           3.75700        -0.18000        36.96600
C           3.85500         2.85600        38.24800
O           4.49800         3.12300        39.50200
C           4.40400         4.50100        39.89500
O           5.03800         4.59500        41.17900
C           8.36300        16.21600         3.16500
C           7.45800        17.35800         3.59800
O           7.66700        18.54300         2.81700
H           7.45600        18.28500         1.87500
C           7.86800        17.71200         5.01800
O           7.31300        18.86000         5.67700
H           7.71700        18.96100         6.58600
C           8.67500        13.75100         3.84300
O           8.38100        13.04300         2.63000
H           8.44500        12.07600         2.87900
C           8.03600        15.09800         4.14100
O           8.46400        15.37800         5.48200
C           7.79200        16.54200         5.98600
O           8.70200        16.73900         7.07800
C           8.08200        16.52200         8.35400
C           8.67700        15.20700         8.83000
O           8.48300        14.13400         7.89700
H           8.58100        14.54900         6.99200
C           8.06300        14.79400        10.15800
O           8.41000        13.52700        10.73400
H           7.96000        13.44300        11.62300
C           8.06900        18.98800         9.21300
O           8.38500        19.57900         7.94400
H           8.40100        20.57000         8.07200
C           8.41900        17.52700         9.44400
O           7.85900        17.14600        10.70900
C           8.26700        15.86700        11.21500
O           7.38300        15.74700        12.34000
C           7.94900        16.03600        13.62700
C           7.42000        17.36700        14.13500
O           7.77600        18.38300        13.18600
H           7.81600        17.92800        12.29700
C           8.01600        17.72500        15.48600
O           7.41000        18.96000        15.89300
H           7.87000        19.19800        16.74800
C           8.16700        13.58300        14.37800
O           7.56200        12.85900        13.29700
H           7.69900        11.89500        13.52200
C           7.68500        14.98900        14.69600
O           8.24300        15.35600        15.96600
C           7.73200        16.59900        16.46700
O           8.60000        16.78300        17.59600
C           7.96100        16.34100        18.80200
C           8.45800        15.03300        19.39600
O           8.41900        14.00700        18.39400
H           8.76400        14.30800        17.50500
C           7.79100        14.65400        20.70800
O           8.27100        13.41500        21.24800
H           7.80100        13.25900        22.11700
C           7.79600        18.84000        19.74300
O           8.17500        19.47200        18.51200
H           8.10700        20.46900        18.53100
C           8.14200        17.36900        19.90700
O           7.54400        16.98000        21.15200
C           8.10700        15.77300        21.68600
O           7.17300        15.72600        22.77500
C           7.76400        15.98800        24.05600
C           7.24500        17.32000        24.57000
O           7.40700        18.33600        23.56900
H           7.31700        17.85200        22.69900
C           7.78600        17.60700        25.96200
O           7.16600        18.77800        26.51400
H           7.48500        18.99600        27.43600
C           7.97000        13.55100        24.90100
O           7.37100        12.82700        23.81600
H           7.74500        11.89900        23.80900
C           7.46200        14.96400        25.13800
O           8.13500        15.23800        26.37600
C           7.65100        16.46100        26.95000
O           8.36800        16.83900        28.13400
C           7.86700        16.35000        29.38600
C           8.63000        15.09900        29.79300
O           8.43900        14.02000        28.86700
H           8.21000        14.37000        27.95800
C           8.13800        14.62800        31.15100
O           8.78900        13.50100        31.75600
H           8.34300        13.22100        32.60600
C           7.40900        18.74900        30.08400
O           7.74400        19.49600        28.90500
H           7.69300        20.46400        29.14800
C           8.11300        17.44300        30.41300
O           7.58100        16.92100        31.63900
C           8.29800        15.77900        32.13100
O           7.52800        15.55600        33.32100
C           8.16300        15.86500        34.57000
C           7.61000        17.18100        35.09300
O           7.71600        18.19100        34.07900
H           7.40700        17.81600        33.20600
C           8.26900        17.65800        36.37700
O           7.61700        18.82000        36.91000
H           8.07600        19.09300        37.75600
C           8.60200        13.45200        35.48600
O           8.18400        12.83400        34.26000
H           8.29000        11.84400        34.34500
C           7.93400        14.80900        35.63900
O           8.60600        15.29200        36.81200
C           8.11200        16.51800        37.37000
O           8.78900        16.69100        38.62400
C           8.13700        16.44000        39.87700
C           8.78400        15.16900        40.40400
O           8.62900        14.11400        39.44300
H           8.95600        14.49700        38.58000
C           8.46400        14.84200        -0.21500
O           9.13100        13.68700         0.31300
H           8.77900        13.47000         1.22300
C           7.98600        18.92200        40.58500
O           8.44000        19.56900        39.38700
H           8.31100        20.55800        39.46400
C           8.49200        17.51500        -1.17900
O           7.97200        17.14500         0.10600
C           8.69200        16.04700         0.68400
O           7.88200        15.87800         1.85600
C           4.32000        12.48600         0.28800
C           4.56500        11.08800        42.88300
O           3.98700        10.13500        41.97900
H           4.17500        10.30400        41.01200
C           3.95400        10.75500         2.16400
O           4.29400         9.48800         2.74600
H           3.92300         9.34700         3.66400
C           4.47200        14.94200         1.27700
O           4.78600        15.72700         0.11700
H           4.59300        16.66700         0.39800
C           4.68200        13.44300         1.41200
O           4.04900        13.10700         2.65500
C           4.36000        11.80900         3.18200
O           3.58900        11.69200         4.38700
C           4.20000        12.04000         5.63800
C           3.90200        13.47600         6.03600
O           4.46200        14.41500         5.10600
H           4.14000        14.08600         4.21800
C           4.38100        13.79000         7.44400
O           3.81100        15.05800         7.79800
H           3.98900        15.16200         8.77700
C           4.16500         9.67200         6.53600
O           3.95800         8.76800         5.44100
H           4.24800         7.84900         5.70900
C           3.64900        11.09300         6.69200
O           4.30400        11.37100         7.93800
C           3.99500        12.68800         8.41700
O           4.89000        12.71900         9.53800
C           4.25200        12.35400        10.77000
C           4.59300        10.97300        11.30400
O           4.26100        10.05000        10.25600
H           4.53400        10.41900         9.36800
C           3.81800        10.58600        12.55400
O           4.20700         9.35200        13.17400
H           3.73700         9.32200        14.05600
C           4.02100        14.77200        11.65800
O           4.41200        15.59900        10.55200
H           4.09300        16.53000        10.73000
C           4.53300        13.35700        11.87700
O           3.70200        13.04500        13.00500
C           4.03600        11.74500        13.51200
O           3.26100        11.63000        14.71400
C           3.83500        11.83300        16.01300
C           3.54200        13.24900        16.48300
O           3.89600        14.26700        15.53500
H           3.95600        13.91900        14.60000
C           4.12000        13.48800        17.86800
O           3.60200        14.79200        18.17100
H           3.47600        14.83000        19.16200
C           3.71800         9.38700        16.85600
O           3.34000         8.77900        15.61300
H           3.32500         7.78100        15.68000
C           3.37000        10.85000        17.07500
O           3.94700        11.11300        18.36300
C           3.59400        12.42700        18.82000
O           4.32000        12.54700        20.05200
C           3.71800        12.19500        21.30600
C           3.92600        10.79400        21.85900
O           3.49800         9.82000        20.89600
H           3.70200        10.20200        19.99400
C           3.34100        10.61200        23.25000
O           3.60400         9.29500        23.75600
H           3.30700         9.24200        24.70900
C           3.77000        14.62000        21.88400
O           3.75600        15.38500        20.67100
H           3.48300        16.31500        20.91900
C           4.18500        13.22500        22.32200
O           3.72500        13.07900        23.67400
C           3.89000        11.72700        24.12500
O           3.15500        11.59300        25.35000
C           3.72100        11.86900        26.63900
C           3.58800        13.30500        27.12000
O           3.94500        14.28600        26.13600
H           3.72600        13.92200        25.23100
C           4.23300        13.59400        28.46600
O           3.92800        14.91100        28.94700
H           4.31800        15.01700        29.86200
C           4.01400         9.55800        27.53100
O           3.59300         8.74300        26.42800
H           3.90100         7.80400        26.58000
C           3.27100        10.87300        27.69600
O           3.64000        11.26400        29.02600
C           3.49400        12.64300        29.39400
O           4.37600        12.56800        30.52300
C           3.88300        12.31600        31.84700
C           4.15800        10.90300        32.33600
O           3.61600        10.05200        31.31500
H           3.73000        10.49100        30.42400
C           3.49000        10.76800        33.69500
O           3.65600         9.46800        34.28100
H           3.36600         9.39300        35.23500
C           4.10200        14.73000        32.60000
O           4.38900        15.51700        31.43400
H           4.00200        16.42700        31.57900
C           4.55600        13.29300        32.79800
O           4.01500        13.11000        34.11500
C           4.06800        11.78600        34.66500
O           3.32200        11.86400        35.88900
C           4.12300        12.08100        37.06000
C           4.02500        13.51600        37.55300
O           4.58400        14.39200        36.56400
H           4.19600        14.13800        35.67800
C           4.69700        13.69200        38.90500
O           4.38900        14.98200        39.45200
H           4.50700        15.11300        40.43600
C           3.86700         9.74200        37.88700
O           3.34700         9.00900        36.76800
H           3.52600         8.03300        36.89500
C           3.66300        11.21100        38.21800
O           4.43500        11.30900        39.42400
C           4.24800        12.64600        39.91200
O           4.95300        12.89500        41.13700
C           7.69500        24.18900         2.96200
C           7.04000        25.50500         3.34900
O           7.41400        26.53600         2.42400
H           7.46300        26.23400         1.47300
C           7.40200        25.95800         4.75400
O           6.60300        27.06000         5.20900
H           6.96500        27.39100         6.08000
C           8.07800        21.83500         3.81900
O           7.45500        21.10500         2.75100
H           7.63400        20.12800         2.86400
C           7.43000        23.18600         4.07200
O           8.04900        23.64900         5.28200
C           7.29000        24.78600         5.71600
O           7.97400        25.17900         6.91400
C           7.56500        24.70800         8.20700
C           8.29500        23.47900         8.72300
O           8.26700        22.45200         7.72100
H           8.18100        22.97200         6.87100
C           7.92800        22.92900        10.09100
O           8.60800        21.79600        10.65000
H           8.28000        21.45200        11.53000
C           7.19000        27.11100         9.13800
O           7.47500        27.69500         7.85900
H           7.69100        28.64800         8.07300
C           7.82700        25.73900         9.29300
O           7.38400        25.27000        10.57400
C           8.09100        24.11000        11.03500
O           7.38700        23.94900        12.27500
C           8.07200        24.28300        13.49100
C           7.40100        25.55300        13.98900
O           7.64800        26.67700        13.13100
H           7.14200        26.57700        12.27400
C           7.84400        26.00600        15.37100
O           7.15200        27.09200        16.00300
H           7.41000        27.21700        16.96100
C           8.51500        21.83800        14.08300
O           7.80500        21.12700        13.05800
H           7.99500        20.15100        13.17200
C           7.91700        23.16800        14.51300
O           8.44700        23.62300        15.76700
C           7.78400        24.78800        16.27800
O           8.36000        25.14100        17.54400
C           7.80000        24.61100        18.75400
C           8.39200        23.29800        19.24200
O           8.39300        22.20900        18.30800
H           8.65700        22.62200        17.43600
C           7.74500        22.85700        20.54500
O           8.51000        21.82000        21.17700
H           7.90400        21.48200        21.89700
C           7.47400        27.05700        19.78900
O           7.99200        27.81000        18.68300
H           7.91500        28.78700        18.88500
C           7.91300        25.60600        19.89800
O           7.02600        25.14900        20.92900
C           7.69500        24.02400        21.51800
O           6.90000        23.79200        22.69000
C           7.49500        24.13700        23.95000
C           7.10900        25.53100        24.41500
O           7.71500        26.46200        23.50700
H           7.39100        26.32900        22.57100
C           7.51000        25.83500        25.84900
O           6.94600        27.05400        26.35500
H           7.46300        27.40000        27.13800
C           7.57700        21.71300        24.75300
O           7.29000        20.99300        23.54600
H           7.39000        20.00100        23.62700
C           7.09000        23.12900        25.01300
O           7.62000        23.37800        26.32300
C           7.29700        24.68500        26.82100
O           8.10700        24.95600        27.97400
C           7.57800        24.61900        29.26400
C           7.97900        23.21300        29.68000
O           7.46100        22.18800        28.81900
H           7.65400        22.56000        27.91100
C           7.62500        22.89200        31.12300
O           8.36700        21.72300        31.49800
H           8.34600        21.59000        32.48900
C           7.76000        27.04000        30.09300
O           8.16600        27.76300        28.92200
H           7.88200        28.71100        29.06400
C           8.11500        25.57800        30.31400
O           7.53400        25.30100        31.59700
C           8.00000        24.02700        32.06200
O           7.29700        23.71900        33.27400
C           7.94100        24.01000        34.52300
C           7.44400        25.35700        35.02300
O           7.73900        26.40700        34.09000
H           7.52800        26.09600        33.16300
C           8.05800        25.71100        36.36700
O           7.79700        27.05400        36.80000
H           8.17000        27.14000        37.72400
C           7.89500        21.55400        35.38000
O           7.94500        20.95400        34.07700
H           8.11100        19.98200        34.24000
C           7.46100        23.00000        35.55200
O           8.03600        23.33700        36.82300
C           7.63400        24.61600        37.33300
O           8.43200        24.79900        38.51100
C           7.76800        24.46900        39.74000
C           8.40300        23.19000        40.25900
O           8.40100        22.14300        39.27800
H           8.53400        22.45100        38.33600
C           7.89400        22.82100        -0.42600
O           8.46500        21.65000         0.17600
H           8.08000        21.43000         1.07200
C           7.58200        26.93500        40.28000
O           8.29600        27.69800        39.29600
H           8.08100        28.65600        39.48300
C           8.07500        25.56600        -1.32400
O           7.49500        25.16700        -0.07400
C           8.09600        24.00100         0.51000
O           7.24300        23.82300         1.65000
C           3.80000        20.59600         0.22600
C           4.23600        19.25900        42.85400
O           3.99000        18.27300        41.84100
H           4.24300        18.60300        40.93100
C           3.60300        18.85700         2.10600
O           3.89700        17.63000         2.78900
H           3.46000        17.51900         3.68100
C           3.79900        22.99500         1.05500
O           4.23000        23.70200        -0.11700
H           4.09800        24.68300         0.02200
C           4.26700        21.56900         1.29600
O           3.69300        21.26900         2.57600
C           3.98000        19.95800         3.08400
O           3.17400        20.02600         4.26900
C           3.89300        20.19000         5.50000