# freq=raman b3lyp/6-31+g(2d,p) geom=connectivity

320 5195/5195.com

0 1
C           8.41800         7.93100         2.75700
C           7.76300         9.23900         3.16900
O           7.99100        10.35300         2.29300
H           7.82800        10.01100         1.36800
C           8.34500         9.53800         4.54200
O           7.83400        10.71900         5.17600
H           8.36400        10.87700         6.00900
C           8.59100         5.44900         3.38900
O           7.98500         4.70700         2.32100
H           8.07300         3.74500         2.58000
C           8.13200         6.84400         3.78000
O           8.73600         7.20400         5.03100
C           8.08800         8.39300         5.50800
O           8.79700         8.79300         6.69000
C           8.20800         8.60000         7.98400
C           8.63400         7.25400         8.54800
O           8.13200         6.20400         7.70800
H           8.44400         6.43900         6.78700
C           8.20500         6.82600         9.94200
O           8.80700         5.63500        10.46900
H           8.42800         5.46600        11.37800
C           7.92400        10.99300         8.77800
O           8.13000        11.70000         7.54700
H           8.00000        12.62500         7.90600
C           8.51300         9.62200         9.06700
O           8.03700         9.26200        10.37200
C           8.49800         7.99600        10.86600
O           7.75900         7.74500        12.07100
C           8.36400         8.23200        13.27800
C           7.79700         9.53100        13.82600
O           7.75600        10.57400        12.84200
H           7.38200        10.12000        12.03300
C           8.40800         9.91200        15.16500
O           7.90300        11.19800        15.55300
H           8.24900        11.18000        16.49100
C           8.66700         5.83600        14.16400
O           8.19700         5.04000        13.06600
H           8.53000         4.10300        13.16500
C           8.06400         7.21600        14.36900
O           8.68600         7.58700        15.60800
C           8.04100         8.77100        16.10000
O           8.86000         8.94900        17.26500
C           8.15200         8.55700        18.45000
C           8.79300         7.24700        18.87700
O           8.33300         6.17600        18.03900
H           8.67700         6.43400        17.13600
C           8.56300         6.81400        20.31500
O           9.48800         5.78300        20.68700
H           9.10900         5.39500        21.52800
C           7.97400        10.97700        19.24000
O           8.56000        11.72600        18.16500
H           8.60100        12.72100        18.25600
C           8.51000         9.58200        19.51400
O           8.03300         9.15300        20.79800
C           8.73700         7.99100        21.26100
O           8.18400         7.56900        22.51700
C           8.76600         8.08600        23.72200
C           8.08300         9.32500        24.27800
O           8.35600        10.35500        23.31700
H           8.08300        10.11700        22.38500
C           8.63700         9.79200        25.61400
O           7.74100        10.79000        26.12400
H           8.15700        11.34200        26.84700
C           9.29200         5.80100        24.46700
O           8.99100         5.12100        23.24000
H           9.05500         4.12700        23.32700
C           8.60000         7.09500        24.86300
O           9.23200         7.46400        26.09700
C           8.56100         8.63200        26.59300
O           9.14000         9.06000        27.83500
C           8.54000         8.62300        29.06300
C           9.22000         7.38800        29.62900
O           9.29200         6.36200        28.62800
H           9.43800         6.82600        27.75400
C           8.56400         6.98200        30.93900
O           8.89700         5.65700        31.37900
H           8.44400         5.36100        32.22000
C           8.03300        11.05000        29.59000
O           8.54800        11.85300        28.51800
H           8.55300        12.78600        28.87800
C           8.69500         9.76400        30.05500
O           8.27500         9.43600        31.38800
C           8.72400         8.16500        31.87900
O           7.81400         7.78500        32.92200
C           8.27400         8.11200        34.24100
C           7.96400         9.52600        34.70400
O           8.65600        10.45000        33.85000
H           8.24700        10.38400        32.94000
C           8.46000         9.78100        36.11800
O           7.89100        10.97700        36.67100
H           7.96500        10.95900        37.66800
C           8.04500         5.70300        34.97200
O           7.63200         4.99000        33.79800
H           7.69300         4.01400        34.01000
C           7.64400         7.14600        35.23100
O           8.12100         7.40400        36.55900
C           7.90700         8.73000        37.06600
O           8.69000         8.79200        38.26700
C           7.95100         8.42700        39.44100
C           8.56600         7.10700        39.87700
O           8.18900         6.07100        38.95900
H           8.31200         6.47800        38.05400
C           8.16900         6.71000        41.29000
O           8.96800         5.61400        41.75900
H           8.55500         5.24100        42.59000
C           7.43500        10.76800        40.22500
O           8.06900        11.47500        39.14900
H           8.06100        12.46200        39.31300
C           8.11400         9.44900        40.55400
O           7.57600         9.03200        41.81800
C           8.32600         7.88500        42.24200
O           7.86400         7.52400        43.55100
C           4.01700         4.58700         0.15800
C           4.11000         3.18400        42.79600
O           3.91900         2.13900        41.83100
H           3.98400         2.40500        40.86900
C           3.35900         3.05900         2.05100
O           3.14100         1.70300         2.46900
H           3.04900         1.58200         3.45700
C           4.14000         6.82400         0.90400
O           4.42800         7.58300        -0.27900
H           4.20000         8.54700        -0.14300
C           4.56900         5.42200         1.30200
O           4.05800         5.26900         2.63400
C           4.15900         3.89500         3.03600
O           3.51500         3.94600         4.31800
C           4.32300         4.20600         5.47500
C           3.95500         5.56300         6.05200
O           4.18800         6.49400         4.98500
H           3.68600         6.06400         4.23500
C           4.53000         5.93200         7.41000
O           4.10400         7.21500         7.89300
H           4.46800         7.29700         8.82100
C           4.35600         1.70600         6.29600
O           3.72100         0.97400         5.23800
H           3.88100        -0.00500         5.36900
C           4.00900         3.16600         6.53900
O           4.44300         3.57500         7.84400
C           4.02800         4.85100         8.35300
O           4.84700         4.81900         9.53100
C           4.15800         4.51600        10.75200
C           4.49300         3.11000        11.22500
O           4.49000         2.11800        10.18800
H           4.90400         2.45200         9.34100
C           3.83400         2.81200        12.56100
O           4.04200         1.46900        13.02300
H           3.92200         1.42900        14.01500
C           4.08900         6.88400        11.55600
O           4.54700         7.52700        10.35800
H           4.21500         8.46800        10.41900
C           4.59900         5.48000        11.84100
O           4.11300         5.21800        13.16500
C           4.35300         3.85400        13.53900
O           3.64300         3.77500        14.78400
C           4.42300         4.11700        15.94000
C           4.01900         5.47200        16.49700
O           4.23000         6.58800        15.61900
H           3.87200         6.21700        14.76200
C           4.64400         5.76900        17.85100
O           4.04900         6.93200        18.44500
H           4.57200         7.18100        19.26100
C           4.05500         1.61200        16.86800
O           3.68200         1.02900        15.61000
H           3.67800         0.05300        15.82700
C           4.01900         3.12400        17.01700
O           4.69300         3.29500        18.27200
C           4.29300         4.59000        18.74400
O           5.07700         4.77000        19.93200
C           4.32700         4.47000        21.11800
C           4.59600         3.04500        21.57600
O           4.25100         2.07700        20.57400
H           4.49800         2.45700        19.68300
C           4.10600         2.82600        22.99800
O           4.63200         1.57900        23.47500
H           4.15600         1.26000        24.29400
C           4.69600         6.97200        22.03300
O           4.98500         7.64300        20.79800
H           4.74500         8.61000        20.88800
C           4.88400         5.46600        22.12200
O           4.30800         5.25500        23.41900
C           4.55400         3.93800        23.93300
O           3.80200         3.89000        25.15400
C           4.44000         4.09600        26.42300
C           4.02700         5.46000        26.95100
O           4.41500         6.48700        26.02700
H           4.31800         6.21400        25.07000
C           4.47400         5.73100        28.37900
O           4.05100         6.96700        28.97300
H           4.36600         7.13600        29.90600
C           4.51400         1.61100        27.18800
O           3.98000         0.84000        26.10300
H           4.06800        -0.13900        26.28500
C           3.98200         3.02000        27.39400
O           4.33200         3.30700        28.75600
C           3.94800         4.59900        29.24700
O           4.71400         4.71400        30.45500
C           4.00300         4.43900        31.67100
C           4.31000         3.05800        32.22500
O           4.14900         2.08400        31.18300
H           4.58000         2.42800        30.34900
C           3.44200         2.78600        33.44400
O           3.59900         1.42200        33.86100
H           4.09600         1.41500        34.72800
C           4.34700         6.82900        32.51300
O           4.66400         7.61700        31.35700
H           4.63600         8.59300        31.57300
C           4.46800         5.34100        32.80200
O           3.78400         5.11100        34.04300
C           3.90000         3.76200        34.51600
O           3.11100         3.63700        35.70800
C           3.82100         3.93400        36.92000
C           3.44400         5.29600        37.48000
O           3.69500         6.30100        36.48700
H           3.47800         5.94500        35.57900
C           4.27700         5.58900        38.71700
O           3.99700         6.87600        39.28600
H           4.28900         6.83300        40.24100
C           3.35400         1.51600        37.65200
O           4.52900         0.95400        37.04900
H           4.42000        -0.03700        36.97900
C           3.40900         2.98600        38.03400
O           4.21200         3.20800        39.20300
C           3.99000         4.51500        39.75400
O           4.72100         4.70900        40.97400
C           8.14000        16.22200         2.98900
C           7.56100        17.54800         3.45500
O           8.03300        18.58700         2.58400
H           7.84000        18.15400         1.70400
C           7.98100        17.87100         4.88000
O           7.20300        19.01400         5.26200
H           7.55800        19.29100         6.15500
C           8.13600        13.74400         3.76900
O           7.64900        13.11100         2.57700
H           7.79700        12.12300         2.53400
C           7.75300        15.19000         4.03600
O           8.34200        15.50700         5.30600
C           7.78400        16.71300         5.84500
O           8.46600        16.97600         7.08000
C           7.71400        16.70100         8.27100
C           8.35800        15.42000         8.77600
O           8.10900        14.38600         7.81300
H           8.41900        14.70400         6.91700
C           7.74300        15.03300        10.11100
O           8.14700        13.76500        10.64500
H           7.79200        13.64000        11.57200
C           7.34000        19.20600         8.91800
O           7.76800        19.88400         7.72800
H           7.85700        20.84500         7.98700
C           7.97000        17.85700         9.22400
O           7.44100        17.45600        10.49700
C           7.94200        16.22400        11.03500
O           7.14400        16.11900        12.22300
C           7.83300        16.42000        13.44500
C           7.23300        17.71100        13.97800
O           7.45600        18.81200        13.08600
H           7.25800        18.39800        12.19800
C           7.61600        18.14400        15.38400
O           6.92600        19.19700        16.07200
H           7.43600        19.35300        16.91800
C           8.17100        14.00900        14.35700
O           7.59500        13.38700        13.19800
H           7.79000        12.41100        13.10200
C           7.62700        15.41300        14.56400
O           8.20600        15.78000        15.82500
C           7.58500        16.96500        16.34300
O           8.33900        17.30000        17.51700
C           7.84300        16.80300        18.76800
C           8.43500        15.46700        19.18600
O           8.23100        14.39600        18.25200
H           8.32100        14.93600        17.41400
C           8.01600        15.05500        20.58800
O           8.65200        13.91400        21.18400
H           8.43100        13.75500        22.14600
C           7.35400        19.23000        19.47600
O           8.10500        19.91200        18.46100
H           7.78800        20.85900        18.42000
C           8.00300        17.89700        19.81100
O           7.41300        17.47300        21.04800
C           8.05800        16.27200        21.49700
O           7.26000        15.99200        22.65700
C           7.92100        16.32800        23.88500
C           7.37400        17.64100        24.41900
O           7.67200        18.70000        23.49800
H           7.27800        18.36800        22.64100
C           7.97600        18.09100        25.74000
O           7.26200        19.24200        26.21200
H           7.58400        19.38500        27.14800
C           8.28700        13.89100        24.96100
O           8.20400        13.18500        23.71400
H           8.25600        12.20100        23.88300
C           7.71300        15.29800        24.98300
O           8.30600        15.78600        26.19600
C           7.67800        16.96500        26.71800
O           8.49000        17.28600        27.85600
C           8.13800        16.73700        29.13500
C           8.88300        15.50300        29.61600
O           8.83600        14.51700        28.57400
H           9.29600        14.93600        27.79100
C           8.38200        15.07500        30.98600
O           9.09600        13.92300        31.45700
H           8.67800        13.50600        32.26500
C           7.61800        19.11100        29.91800
O           7.92500        19.91200        28.76800
H           8.17500        20.86100        28.96000
C           8.34600        17.80600        30.19500
O           7.82100        17.43400        31.47800
C           8.49100        16.25300        31.94000
O           7.64400        15.81300        33.01100
C           8.12100        16.17100        34.31700
C           7.40200        17.39000        34.87200
O           7.40000        18.39700        33.85000
H           7.18100        17.84100        33.04900
C           7.96900        17.76800        36.23100
O           7.56500        19.03900        36.76100
H           7.79900        19.16000        37.72600
C           8.52600        13.69600        34.97100
O           8.17300        12.94100        33.80300
H           8.42100        12.05600        34.19700
C           7.94000        15.05200        35.32900
O           8.36200        15.35200        36.66700
C           7.75700        16.56600        37.13700
O           8.37400        16.79500        38.41300
C           7.84300        16.59100        39.73000
C           8.37600        15.27600        40.27500
O           8.32400        14.18000        39.35000
H           8.62300        14.61100        38.49800
C           7.96900        14.87500        -0.37600
O           8.67200        13.68800         0.02100
H           8.44700        13.48000         0.97200
C           7.78300        19.06000        40.45400
O           8.29300        19.62500        39.23700
H           8.12400        20.61000        39.25300
C           8.24200        17.64300        -1.30100
O           7.86600        17.32800         0.04700
C           8.28700        16.04700         0.53900
O           7.57000        15.77300         1.75100
C           3.69500        12.59300         0.12100
C           4.22800        11.28400        42.73600
O           3.97900        10.28000        41.74300
H           4.16600        10.59500        40.81200
C           3.56100        10.90500         1.98800
O           4.10200         9.65200         2.43200
H           3.80300         9.48600         3.37200
C           3.30400        14.97800         0.92000
O           3.87400        15.69900        -0.18200
H           3.51100        16.59000         0.09000
C           3.82100        13.59000         1.26200
O           3.26000        13.25100         2.53900
C           3.78600        12.00400         3.01400
O           3.19700        11.74300         4.29600
C           4.05000        12.08700         5.39800
C           3.65400        13.49000         5.82800
O           3.89700        14.55000         4.89200
H           3.51800        14.17900         4.04400
C           4.30500        13.82800         7.15900
O           3.64800        15.00500         7.65200
H           3.99300        15.14900         8.57900
C           4.29000         9.64100         6.04700
O           3.46900         9.03100         5.04100
H           3.64600         8.04800         5.09800
C           3.71700        11.00200         6.40900
O           4.27300        11.41900         7.66400
C           4.00600        12.73400         8.17200
O           4.78500        12.93000         9.36100
C           4.12900        12.64200        10.60400
C           4.31000        11.24400        11.17400
O           3.92300        10.22800        10.23800
H           4.03400        10.46400         9.27300
C           3.69900        11.02500        12.54900
O           4.17900         9.79800        13.11700
H           3.93700         9.66800        14.07900
C           3.55300        14.95500        11.22200
O           4.00400        15.82500        10.17400
H           3.52100        16.68300        10.35000
C           4.27600        13.70000        11.68500
O           3.54000        13.35400        12.86700
C           4.10300        12.17400        13.45900
O           3.51600        11.90200        14.74000
C           4.13200        12.26600        15.98400
C           3.61500        13.59400        16.51200
O           3.67200        14.63600        15.52800
H           3.48100        14.19700        14.65000
C           4.32500        13.99100        17.79600
O           3.75800        15.21400        18.28800
H           3.92900        15.31200        19.26800
C           4.28400         9.79600        16.80600
O           4.02100         9.10800        15.57400
H           4.08500         8.11100        15.60100
C           3.77800        11.21300        17.02100
O           4.29600        11.59200        18.30500
C           3.88800        12.89300        18.75200
O           4.68900        12.88300        19.94300
C           4.02800        12.59500        21.18500
C           4.43300        11.24100        21.74500
O           4.39200        10.13500        20.83100
H           4.48800        10.58100        19.94100
C           3.92700        11.00600        23.15900
O           4.51600         9.78600        23.63200
H           4.30600         9.65100        24.60000
C           4.16400        15.02500        21.92000
O           4.34500        15.67700        20.65400
H           4.31500        16.67100        20.76000
C           4.57400        13.58800        22.19800
O           4.07700        13.40800        23.53200
C           4.34300        12.12000        24.10600
O           3.56600        12.20200        25.30900
C           4.38400        12.31300        26.48400
C           3.90400        13.63200        27.06700
O           4.22500        14.68400        26.14500
H           3.82700        14.44000        25.26000
C           4.45300        14.01600        28.43100
O           4.01400        15.25400        29.00900
H           4.27300        15.25700        29.97500
C           4.35600         9.80800        27.22200
O           3.96000         9.13400        26.01800
H           4.25400         8.18100        26.08400
C           3.95800        11.25100        27.48500
O           4.55500        11.55800        28.75300
C           4.12300        12.81300        29.29900
O           4.81200        12.97500        30.54800
C           4.15800        12.66000        31.78500
C           4.50100        11.23900        32.20400
O           4.14800        10.28400        31.19300
H           4.51700        10.56700        30.30800
C           3.91700        10.85400        33.55300
O           4.05300         9.50300        34.01900
H           3.77900         9.44000        34.97900
C           4.36000        14.98300        32.76800
O           4.77400        15.62400        31.55200
H           4.33200        16.52100        31.58300
C           4.76400        13.52200        32.88100
O           4.37700        13.16800        34.21600
C           4.39500        11.79800        34.64400
O           3.49900        11.80500        35.76600
C           4.16200        12.08100        37.00800
C           3.86700        13.52600        37.37600
O           4.48400        14.54500        36.57700
H           4.11300        14.44700        35.65400
C           4.24400        13.91400        38.79700
O           3.72100        15.15000        39.30500
H           3.96900        15.12500        40.27400
C           4.11200         9.75100        37.71400
O           3.38300         9.08000        36.67600
H           3.49700         8.09700        36.82400
C           3.71600        11.15800        38.13000
O           4.43200        11.52300        39.31800
C           3.81300        12.76300        39.69100
O           4.39600        12.96600        40.98600
C           7.95200        24.41000         3.04600
C           7.41500        25.73400         3.56300
O           7.58400        26.77600         2.59100
H           7.47300        26.41900         1.66300
C           7.86800        26.01900         4.98600
O           7.16700        27.19400         5.41800
H           7.63700        27.31500         6.29200
C           7.62000        21.98600         3.58200
O           8.97600        21.55700         3.38700
H           9.09900        20.56700         3.32100
C           7.39000        23.41400         4.04800
O           7.90100        23.66800         5.36500
C           7.47900        24.90900         5.94800
O           8.35800        25.07500         7.07100
C           7.74300        24.85000         8.34800
C           8.13500        23.49200         8.90600
O           7.85300        22.47700         7.93100
H           8.04000        22.86000         7.02700
C           7.53100        23.11300        10.24800
O           8.28700        22.02900        10.80900
H           7.87800        21.81700        11.69700
C           7.38000        27.22100         8.93400
O           8.11300        27.81900         7.85400
H           7.99100        28.81200         7.86600
C           7.94800        25.90000         9.42800
O           7.08100        25.46600        10.48600
C           7.60900        24.32000        11.16900
O           6.87000        24.12300        12.38300
C           7.50400        24.47900        13.62000
C           6.85900        25.72700        14.20100
O           6.53400        26.71900        13.21600
H           6.17800        26.29100        12.38500
C           7.58300        26.25500        15.42800
O           7.10900        27.51600        15.92100
H           7.68800        27.71300        16.71200
C           7.86700        22.01600        14.40400
O           7.27400        21.49700        13.20500
H           7.43400        20.51200        13.14300
C           7.28900        23.39700        14.66500
O           8.01200        23.86100        15.81400
C           7.54300        25.08500        16.39900
O           8.58400        25.09600        17.38700
C           7.98400        24.80400        18.65700
C           8.35600        23.41200        19.14100
O           8.02600        22.44900        18.12900
H           8.46100        22.85700        17.32700
C           7.84300        23.11800        20.54100
O           8.09800        21.85100        21.16500
H           7.67500        21.85000        22.07100
C           7.91800        27.16900        19.59000
O           8.37800        27.92000        18.45700
H           8.31900        28.89700        18.66000
C           8.42200        25.74600        19.76600
O           7.89300        25.53100        21.08300
C           8.28700        24.21400        21.49600
O           7.53800        24.07100        22.71200
C           7.89500        24.51000        24.03100
C           7.28500        25.83300        24.46400
O           7.68400        26.81200        23.49400
H           7.37300        26.43700        22.62100
C           7.91000        26.17800        25.80700
O           7.38600        27.39900        26.34700
H           8.03800        27.57700        27.08400
C           8.10400        21.97900        24.68600
O           7.38200        21.33600        23.62600
H           7.33900        20.34300        23.73900
C           7.73000        23.40400        25.06000
O           8.45300        23.90800        26.19200
C           7.91200        25.06700        26.84400
O           8.61700        25.24300        28.08100
C           7.93500        24.81200        29.26800
C           8.49700        23.48900        29.76300
O           8.59700        22.50300        28.72600
H           8.73900        23.02700        27.88600
C           7.89000        23.09900        31.10100
O           8.67200        21.99200        31.57200
H           8.26700        21.64500        32.41700
C           7.47600        27.25500        30.06900
O           7.95000        27.96100        28.91200
H           7.45300        28.82600        28.84400
C           8.06000        25.87900        30.34300
O           7.31500        25.36300        31.45600
C           7.91800        24.23700        32.10900
O           7.11500        23.91400        33.25300
C           7.78000        24.26900        34.47400
C           7.23100        25.55400        35.07100
O           7.18600        26.65700        34.15300
H           6.86200        26.30100        33.27600
C           7.98200        25.96400        36.32700
O           7.43200        27.20500        36.79300
H           7.98100        27.40400        37.60400
C           8.37800        21.86300        35.15700
O           7.96700        21.26000        33.92100
H           7.82300        20.28900        34.11100
C           7.86100        23.22900        35.57900
O           8.51500        23.69100        36.77000
C           7.94800        24.86200        37.37400
O           8.69600        25.07900        38.57900
C           8.06500        24.77300        39.83100
C           8.42700        23.37200        40.29600
O           8.13300        22.39900        39.28300
H           8.07700        22.93400        38.44000
C           8.10100        23.08800        -0.30500
O           8.73100        21.86700         0.11000
H           8.17600        21.42100         0.81200
C           7.96100        27.20100        40.52100
O           8.43700        27.88700        39.35500
H           8.14900        28.84300        39.41300
C           8.43400        25.80400        -1.16900
O           7.91100        25.49100         0.13100
C           8.35200        24.23300         0.66300
O           7.41500        24.13300         1.74400
C           3.71100        20.68500         0.30100
C           4.05100        19.29300        42.86600
O           3.34800        18.37100        42.02100
H           3.60100        18.54000        41.06800
C           3.54800        18.96700         2.20400
O           3.70100        17.61100         2.64500
H           3.31000        17.56500         3.56500
C           3.68200        23.13600         1.09500
O           4.31100        23.73800        -0.04600
H           4.04300        24.69900        -0.11100
C           4.14000        21.70800         1.34100
O           3.68800        21.29100         2.63800
C           4.00900        20.01300         3.20500
O           3.20800        19.85900         4.38600
C           3.74700        20.20700         5.67000