# freq=raman b3lyp/6-31+g(d,p) geom=connectivity

290 7000.com

0 1
 O                  7.63000000    7.66800000   22.80400000
 C                  8.36800000    7.78900000   24.02800000
 C                  8.07500000    9.22200000   24.44100000
 O                  8.33000000   10.31900000   23.55100000
 H                  7.90700000   10.02000000   22.69600000
 C                  8.50400000    9.59700000   25.85000000
 O                  8.14000000   10.90700000   26.30800000
 H                  8.36600000   10.93900000   27.28200000
 C                  8.35600000    5.47000000   24.76000000
 O                  7.85800000    4.75000000   23.62400000
 H                  7.86800000    3.77100000   23.83000000
 C                  7.74300000    6.83400000   25.03100000
 O                  8.20600000    7.16500000   26.34800000
 C                  7.99100000    8.51500000   26.78600000
 O                  8.79100000    8.66400000   27.96800000
 C                  8.05900000    8.31300000   29.15100000
 C                  8.58700000    6.97800000   29.65100000
 O                  8.28200000    5.93200000   28.71700000
 H                  8.57500000    6.37600000   27.87100000
 C                  8.07000000    6.57400000   31.02200000
 O                  8.68000000    5.38100000   31.53600000
 H                  8.42600000    5.21700000   32.48900000
 C                  7.93600000   10.81100000   29.98100000
 O                  8.50200000   11.48600000   28.84900000
 H                  8.39000000   12.48000000   28.84400000
 C                  8.30000000    9.35600000   30.23000000
 O                  7.73000000    8.92200000   31.47300000
 C                  8.19200000    7.69000000   32.04600000
 O                  7.47400000    7.45800000   33.26600000
 H                  8.09739168    7.32161367   33.98320400
 H                  9.22789227    7.80415657   32.28847779
 H                  7.02629414    6.36639251   30.91029853
 H                  9.65217807    7.05560973   29.71636360
 H                  7.01409034    8.23993241   28.93253962
 H                  9.35884082    9.35664551   30.38412888
 H                  8.21177611   11.36409207   30.85446248
 H                  6.87153562   10.86298566   29.88553761
 H                  8.24146640    7.59519402   22.06751638
 H                  8.20317644    4.86242918   25.62741147
 H                  9.40961898    5.60294816   24.62918783
 H                  6.67500126    6.81735629   24.96774117
 H                  9.41404260    7.61133957   23.88968280
 H                  7.00707803    9.22189169   24.50765321
 H                  9.57269877    9.54897821   25.87183687
 H                  6.95776832    8.67527042   27.01325686

 1 2 1.0 38 1.0
 2 3 1.0 12 1.0 42 1.0
 3 4 1.0 6 1.0 43 1.0
 4 5 1.0
 5
 6 7 1.0 14 1.0 44 1.0
 7 8 1.0
 8
 9 10 1.0 12 1.0 39 1.0 40 1.0
 10 11 1.0
 11
 12 13 1.0 41 1.0
 13 14 1.0
 14 15 1.0 45 1.0
 15 16 1.0
 16 17 1.0 26 1.0 34 1.0
 17 18 1.0 20 1.0 33 1.0
 18 19 1.0
 19
 20 21 1.0 28 1.0 32 1.0
 21 22 1.0
 22
 23 24 1.0 26 1.0 36 1.0 37 1.0
 24 25 1.0
 25
 26 27 1.0 35 1.0
 27 28 1.0
 28 29 1.0 31 1.0
 29 30 1.0
 30
 31
 32
 33
 34
 35
 36
 37
 38
 39
 40
 41
 42
 43
 44
 45

