# freq=raman b3lyp/6-31+g(2d,p) geom=connectivity

500 8934/8934.com

0 1
O           8.68500         6.63500        12.19300
C           9.52700         6.85200        13.33500
C           9.37300         8.23800        13.94000
O           9.83800         9.12100        12.90900
H           9.23500         8.90600        12.14100
C          10.15700         8.32900        15.23900
O          10.09400         9.61600        15.87000
H          10.16400        10.36200        15.20800
C           9.33200         4.47700        13.85400
O           8.83900         3.40900        14.67500
H           8.87300         2.62500        14.05600
C           9.03500         5.87000        14.38500
O           9.61400         6.00400        15.69100
C           9.53500         7.33900        16.21100
O          10.29100         7.17800        17.42000
C           9.37900         7.34700        18.51500
C           9.28700         5.96100        19.13100
O           9.05100         5.01000        18.08200
H           9.58400         5.29200        17.28400
C           8.36100         5.80200        20.32600
O           8.20700         4.43400        20.72900
H           7.87600         3.90700        19.94700
C          10.35300         9.51800        19.20100
O          10.98100        10.42100        20.12300
H          10.66900        11.36300        19.99900
C           9.84000         8.17800        19.70100
O           8.99800         8.07300        20.85800
C           9.06700         6.71400        21.31500
O           8.46700         6.58000        22.61200

