# freq=raman b3lyp/6-31+g(2d,p) geom=connectivity

550 5241/5241.com

0 1
O           9.53900         7.15400        11.04900
C          10.55500         7.10300        12.06100
C          10.48400         8.51000        12.63000
O          11.24800         9.42800        11.83400
H          11.14900         9.03200        10.92100
C          10.72400         8.86100        14.09000
O          10.20100        10.09900        14.59200
H          10.67200        10.94000        14.32500
C           9.65100         4.80300        12.77600
O           9.12600         3.77700        13.63100
H           8.93600         3.04700        12.97400
C           9.97400         6.23600        13.16700
O          10.58900         6.39600        14.45300
C          10.15100         7.69500        14.87900
O          10.85500         7.62300        16.12700
C          10.19300         7.69200        17.39800
C           9.94300         6.30800        17.97500
O           9.11300         5.48800        17.13900
H           9.61700         5.34900        16.28600
C           9.29900         6.31200        19.35200
O           9.04500         4.98600        19.83800
H           8.60400         4.57500        19.04000
C          11.18900         9.89300        17.97400
O          11.95300        10.70000        18.88200
H          12.88600        10.40500        19.08600
C          10.96900         8.46700        18.45000
O          10.38700         8.35500        19.75700
C          10.10300         7.09300        20.37800
O           9.39100         7.38500        21.59000

