# freq=raman b3lyp/6-31+g(2d,p) geom=connectivity

423 6495/6495.com

0 1
C           8.14500         7.73500         2.98300
C           7.54900         9.04800         3.46300
O           7.70500        10.13000         2.53300
H           7.53100         9.77300         1.61500
C           8.18400         9.36700         4.80700
O           7.48400        10.51700         5.30200
H           7.84500        10.77800         6.19800
C           8.64300         5.27600         3.64500
O           8.17500         4.76200         2.38900
H           8.13900         3.76400         2.44500
C           7.99600         6.60700         3.99100
O           8.55100         6.99800         5.25600
C           8.02600         8.22100         5.79300
O           8.85800         8.58300         6.90600
C           8.38300         8.20400         8.20500
C           8.87600         6.88800         8.78500
O           8.39500         5.88300         7.88100
H           8.59300         6.18900         6.94900
C           8.37900         6.56200        10.18400
O           9.18400         5.45100        10.60600
H           8.90500         5.17200        11.52500
C           8.20300        10.72000         8.94300
O           8.74500        11.43500         7.82300
H           8.57200        12.38600         8.07900
C           8.58500         9.28300         9.25600
O           7.97600         8.94400        10.51100
C           8.57300         7.77200        11.08300
O           7.68800         7.61900        12.20200
C           8.29700         7.83900        13.48300
C           7.76500         9.13100        14.08200
O           7.69400        10.18000        13.10600
H           7.59900         9.80600        12.18400
C           8.44300         9.61300        15.35300
O           7.98600        10.92100        15.72800
H           8.10400        11.07000        16.71000
C           8.27200         5.37200        14.34000
O           8.15100         4.72000        13.06800
H           8.32500         3.73600        13.12200
C           7.81200         6.81200        14.49300
O           8.35000         7.14600        15.78100
C           8.08800         8.46500        16.28300
O           8.80400         8.59800        17.52000
C           8.07400         8.30800        18.72100
C           8.42100         6.89400        19.15800
O           7.91500         5.88500        18.27100
H           8.10600         6.34900        17.40600
C           8.12900         6.59600        20.61900
O           8.63400         5.36100        21.14600
H           8.32100         5.22500        22.08600
C           8.03200        10.64500        19.51300
O           8.22400        11.29800        18.25000
H           8.18600        12.26100        18.51700
C           8.63400         9.27000        19.75600
O           8.18500         9.03500        21.09800
C           8.55400         7.72300        21.54700
O           7.76000         7.43700        22.70800
C           8.27600         7.70600        24.02000
C           7.93800         9.14300        24.38000
O           8.49000        10.19400        23.57300
H           8.48000         9.87900        22.62500
C           8.33000         9.52500        25.79800
O           7.58300        10.62900        26.32900
H           7.70800        10.82600        27.30200
C           8.12800         5.34800        24.79400
O           7.86300         4.66200        23.56200
H           7.92500         3.67900        23.73700
C           7.77100         6.78900        25.12200
O           8.38700         7.16500        26.36300
C           7.93400         8.45400        26.80200
O           8.69600         8.58400        28.01100
C           8.01400         8.23300        29.22300
C           8.51600         6.87700        29.69300
O           8.07500         5.88200        28.75700
H           8.33700         6.05000        27.80700
C           8.12600         6.46100        31.10200
O           8.87000         5.30700        31.51900
H           8.70600         5.37700        32.50300
C           7.46800        10.53700        29.96800
O           7.97000        11.36600        28.90900
H           7.95200        12.34700        29.09900
C           8.25100         9.27800        30.30100
O           7.92700         8.85000        31.63200
C           8.49700         7.59800        32.04000
O           7.74400         7.36300        33.23900
C           8.24100         7.74200        34.53100
C           7.72900         9.08300        35.03300
O           7.54700        10.10300        34.04000
H           7.59200         9.75500        33.10400
C           8.34600         9.42700        36.37900
O           7.83200        10.60700        37.01400
H           8.14200        10.62300        37.96400
C           8.41200         5.32900        35.25600
O           8.10000         4.60300        34.05800
H           8.05200         3.61300        34.19000
C           7.92200         6.72400        35.61300
O           8.62000         7.06700        36.81900
C           8.12100         8.29600        37.36900
O           8.75900         8.68900        38.59200
C           8.32500         8.13700        39.84300
C           9.04100         6.86400        40.26500
O           8.81500         5.84500        39.27900
H           9.02400         6.22800        38.38000
C           8.58800         6.50700        -0.39700
O           9.37400         5.49100         0.24300
H           8.94800         5.22700         1.10800
C           8.10700        10.65800        40.53000
O           8.84200        11.22900        39.43800
H           8.87700        12.22100        39.56600
C           8.45100         9.22600        -1.17900
O           7.79100         8.79800         0.02100
C           8.51500         7.68400         0.56200
O           7.62500         7.48300         1.66900
C           4.22000         4.24600         0.22600
C           4.49900         2.83500        42.80000
O           4.13500         1.88800        41.78500
H           4.60900         2.24800        40.98100
C           3.69000         2.54400         1.99000
O           3.86300         1.20900         2.48500
H           4.11600         1.16900         3.45200
C           4.19900         6.74600         0.96000
O           4.84000         7.48400        -0.09000
H           4.62300         8.45700        -0.01400
C           4.49500         5.29300         1.29300
O           3.90100         4.90100         2.53900
C           4.17500         3.57100         3.00100
O           3.53100         3.38400         4.27000
C           4.21400         3.74300         5.48000
C           3.81800         5.12200         5.98100
O           4.14200         6.09500         4.97800
H           3.95000         5.63200         4.11300
C           4.41100         5.49200         7.33100
O           3.93500         6.76800         7.78500
H           4.14100         6.86500         8.75800
C           3.63800         1.33700         6.16200
O           4.69700         0.50600         5.66600
H           4.50500        -0.40100         6.04100
C           3.78400         2.79000         6.58400
O           4.43600         3.04200         7.83700
C           4.00300         4.34800         8.24400
O           4.56100         4.56900         9.54800
C           3.98700         4.19100        10.80800
C           4.28100         2.77600        11.27900
O           4.05100         1.84500        10.21100
H           4.30300         2.27200         9.34300
C           3.56000         2.46800        12.58100
O           3.75700         1.11800        13.02300
H           3.64500         1.08300        14.01600
C           3.98200         6.53800        11.43000
O           4.50400         7.33900        10.35900
H           4.18700         8.27400        10.51700
C           4.45000         5.16400        11.88000
O           3.84700         4.76400        13.11900
C           4.14900         3.44200        13.58800
O           3.39400         3.52800        14.80500
C           4.18000         3.77500        15.98000
C           3.87300         5.16900        16.50200
O           3.97500         6.22000        15.52900
H           3.60300         5.92100        14.65000
C           4.67400         5.47900        17.75600
O           4.52200         6.82500        18.23200
H           4.84800         6.84800        19.17700
C           4.22700         1.33400        16.88600
O           3.61800         0.72100        15.73900
H           3.73400        -0.27100        15.77200
C           3.93400         2.80600        17.12500
O           4.67500         3.11200        18.31500
C           4.29300         4.41700        18.77400
O           5.00800         4.44100        20.01800
C           4.19900         4.21800        21.18200
C           4.53100         2.85000        21.75600
O           3.99600         1.92400        20.79800
H           4.32300         2.18100        19.88900
C           3.96900         2.50300        23.12500
O           4.42800         1.26100        23.67700
H           4.04200         1.07000        24.58000
C           4.06000         6.70300        21.98200
O           4.52300         7.35900        20.79200
H           4.36800         8.34600        20.83800
C           4.44100         5.25900        22.26300
O           3.84000         4.95500        23.53000
C           4.28300         3.68400        24.02800
O           3.64700         3.50000        25.30000
C           4.17600         3.89700        26.57300
C           3.69200         5.26100        27.03700
O           3.97000         6.23200        26.01800
H           3.68700         5.88900        25.12200
C           4.30800         5.58900        28.38800
O           3.74000         6.79100        28.93000
H           4.17600         6.98700        29.80800
C           4.30100         1.37000        27.46200
O           3.90500         0.66400        26.27700
H           4.17000        -0.28200        26.46400
C           3.92400         2.83300        27.62800
O           4.43600         3.21100        28.91400
C           4.07400         4.50200        29.42400
O           4.87900         4.71000        30.59400
C           4.18200         4.41900        31.81400
C           4.68700         3.06100        32.27400
O           4.60600         2.05100        31.25900
H           4.75100         2.52500        30.39100
C           4.05900         2.72900        33.61800
O           4.45400         1.45800        34.15200
H           4.11300         1.35000        35.08600
C           3.83200         6.79200        32.54700
O           4.47000         7.52800        31.49400
H           4.10500         8.45700        31.43900
C           4.56500         5.48900        32.82300
O           4.06900         5.15200        34.12700
C           4.44800         3.84300        34.57600
O           3.71700         3.75300        35.80700
C           4.55000         3.92100        36.96300
C           4.30200         5.34200        37.44400
O           4.64100         6.37300        36.50600
H           4.20800         6.05300        35.66400
C           4.78900         5.62200        38.85700
O           4.37400         6.86200        39.44700
H           4.65500         6.94100        40.40400
C           4.46600         1.52800        37.69700
O           3.87200         0.78100        36.62500
H           4.06200        -0.17200        36.86300
C           4.11000         2.96100        38.05600
O           4.76700         3.24600        39.30000
C           4.35500         4.52200        39.81200
O           4.97300         4.55300        41.10600
C           7.98900        16.07800         3.07800
C           7.62200        17.47500         3.55400
O           7.77300        18.49400         2.55500
H           7.40900        18.15200         1.68900
C           8.28200        17.81600         4.88000
O           7.72400        18.96900         5.52700
H           8.04400        19.09500         6.46600
C           8.05600        13.60400         4.01200
O           7.87400        12.83800         2.81200
H           8.03900        11.85900         2.92900
C           7.66200        15.06400         4.16200
O           8.41400        15.38000         5.34200
C           8.04600        16.67000         5.85100
O           8.80400        16.87300         7.05100
C           8.14300        16.51800         8.27400
C           8.52800        15.15000         8.81400
O           8.17300        14.12300         7.87700
H           8.44600        14.40400         6.95700
C           8.00600        14.64900        10.15000
O           8.76700        13.58500        10.74000
H           8.50300        13.30400        11.66300
C           7.95100        18.90600         9.04900
O           8.44100        19.73000         7.98100
H           8.17700        20.66400         8.22400
C           8.40100        17.49900         9.40600
O           7.66800        17.08100        10.56700
C           8.18200        15.84200        11.07600
O           7.37700        15.58700        12.23600
C           8.04200        15.87800        13.47400
C           7.62200        17.23700        14.01100
O           7.72700        18.28600        13.03800
H           7.49700        17.90700        12.14200
C           8.13800        17.58400        15.39700
O           7.58700        18.76100        16.00600
H           8.19600        18.92700        16.78200
C           8.44300        13.56800        14.22600
O           7.84000        12.86800        13.12800
H           7.80600        11.89400        13.35300
C           7.83800        14.90500        14.62300
O           8.50800        15.27500        15.83700
C           7.92700        16.46100        16.39900
O           8.56000        16.57300        17.68200
C           7.76000        16.34900        18.85200
C           8.28800        15.03100        19.39500
O           8.10100        13.94900        18.47000
H           8.22400        14.33500        17.55600
C           7.77100        14.70000        20.78600
O           8.26200        13.43500        21.25200
H           7.88600        13.36600        22.17600
C           7.62500        18.75900        19.52700
O           8.38500        19.41600        18.50300
H           8.25000        20.40000        18.62300
C           8.09500        17.37100        19.92600
O           7.59600        17.10200        21.24400
C           7.99900        15.83100        21.77500
O           7.29200        15.58900        23.00000
C           7.98300        15.93900        24.20800
C           7.30700        17.19600        24.73100
O           7.52600        18.28900        23.82700
H           7.49400        17.89500        22.90800
C           7.77700        17.54000        26.13500
O           7.18700        18.76400        26.59700
H           7.66800        19.06500        27.42100
C           8.19300        13.52500        24.79800
O           7.72200        12.82700        23.63600
H           8.00500        11.87500        23.75200
C           7.60600        14.86400        25.21400
O           8.09500        15.12600        26.53700
C           7.58900        16.35800        27.07200
O           8.33400        16.61200        28.27200
C           7.84600        16.13000        29.53300
C           8.53400        14.85900        30.00300
O           8.50000        13.83200        29.00200
H           9.08600        14.22000        28.29000
C           7.91500        14.41500        31.31900
O           8.60600        13.21800        31.70300
H           8.41200        13.07400        32.67300
C           7.79700        18.57900        30.10100
O           8.17300        19.41000        28.99400
H           7.75500        20.30900        29.12600
C           8.19800        17.18800        30.56600
O           7.63400        16.87500        31.84800
C           8.11200        15.58800        32.26500
O           7.40400        15.30900        33.48100
C           8.16100        15.69700        34.63700
C           7.62500        17.03200        35.12800
O           7.82800        18.04600        34.13200
H           7.59300        17.69000        33.22700
C           8.09700        17.52800        36.48500
O           7.40900        18.70100        36.94400
H           7.89500        19.05000        37.74500
C           8.39900        13.32000        35.54600
O           7.87500        12.74900        34.33800
H           7.73900        11.75900        34.34900
C           7.88900        14.73200        35.78000
O           8.65900        15.18000        36.90500
C           8.04900        16.35800        37.45400
O           8.80100        16.62200        38.64700
C           8.04700        16.24500        39.80800
C           8.63200        15.00300        40.46100
O           8.91500        13.98600        39.48900
H           9.11900        14.47500        38.64100
C           8.04000        14.58200        -0.27100
O           8.68100        13.50800         0.43400
H           8.24100        13.30700         1.30900
C           7.75800        18.78300        40.68800
O           8.66300        19.43000        39.78100
H           8.55800        20.41900        39.87900
C           8.06000        17.31100        -1.18100
O           7.42300        16.95300         0.05400
C           8.07500        15.80900         0.62500
O           7.36600        15.64200         1.86100
C           3.91200        12.49400         0.15600
C           4.22400        11.07600        42.69100
O           4.12700        10.08200        41.66100
H           4.58700        10.52100        40.88900
C           3.37300        10.76900         1.85000
O           3.29700         9.44000         2.38500
H           3.19400         9.46800         3.37900
C           3.71900        14.91100         1.01300
O           3.98100        15.59800        -0.21900
H           4.01500        16.58300        -0.05000
C           4.22700        13.49900         1.25200
O           3.60800        13.09700         2.48200
C           3.91000        11.75100         2.87800
O           3.30800        11.63200         4.17500
C           4.06300        11.99600         5.34000
C           3.69600        13.39500         5.80800
O           4.19700        14.31800         4.83000
H           3.86200        14.11700         3.91000
C           4.33900        13.66100         7.15900
O           3.81300        14.92500         7.58800
H           4.19400        15.06600         8.50200
C           4.05600         9.58200         6.10300
O           3.54200         8.79300         5.01900
H           3.76800         7.82800         5.14900
C           3.67300        11.01500         6.43400
O           4.13500        11.29200         7.76400
C           3.80700        12.63600         8.14700
O           4.56100        12.66500         9.36800
C           3.78000        12.52800        10.56500
C           3.90200        11.09900        11.06900
O           3.39700        10.19800        10.07300
H           3.68800        10.50900         9.16800
C           3.30300        10.80900        12.43600
O           3.54500         9.44700        12.81800
H           3.51500         9.33300        13.81100
C           3.88200        14.91200        11.17300
O           4.42800        15.49100         9.97900
H           4.27100        16.47200        10.09600
C           4.19900        13.50500        11.65100
O           3.59000        13.23800        12.92300
C           3.83300        11.89300        13.35900
O           3.26500        11.65300        14.65500
C           4.00700        11.96600        15.84200
C           3.69500        13.36500        16.34800
O           4.14900        14.41900        15.48800
H           3.71500        14.28000        14.59700
C           4.14800        13.72500        17.75400
O           3.70400        14.98500        18.27700
H           3.93500        14.96400        19.25000
C           4.17700         9.55700        16.72100
O           3.77100         8.83700        15.54800
H           3.98700         7.87200        15.69600
C           3.70400        10.98100        16.96100
O           4.22900        11.38900        18.23300
C           3.68400        12.63100        18.70200
O           4.48900        12.74900        19.88400
C           3.81900        12.39400        21.10200
C           4.17400        11.05400        21.72500
O           3.88300        10.06100        20.73000
H           4.12400        10.47400        19.85200
C           3.54400        10.80500        23.08500
O           3.99200         9.51800        23.53400
H           3.73800         9.31800        24.48100
C           3.59100        14.77700        21.91300
O           4.15000        15.57000        20.85600
H           3.80500        16.49400        21.02300
C           4.20300        13.40900        22.16700
O           3.69800        13.17700        23.49000
C           3.99700        11.88900        24.04900
O           3.18400        11.70100        25.21600
C           3.86800        12.02600        26.43500
C           3.50300        13.39000        26.99700
O           3.80000        14.43500        26.05900
H           3.44200        14.18000        25.16100
C           4.13700        13.74900        28.33100
O           3.73600        14.95800        28.99300
H           4.29900        15.02300        29.81700
C           3.89600         9.53400        27.30200
O           3.56300         8.90800        26.05400
H           3.61200         7.92600        26.23400
C           3.50000        10.99000        27.48600
O           4.09700        11.33800        28.74400
C           3.84600        12.62900        29.31800
O           4.46500        12.90100        30.58300
C           3.71800        12.49600        31.73900
C           3.86400        11.03400        32.13000
O           3.31800        10.16900        31.12400
H           3.71800        10.51600        30.27500
C           3.44800        10.76600        33.56800
O           4.09100         9.56700        34.02300
H           3.82400         9.42900        34.97700
C           3.94100        14.93500        32.55700
O           4.39000        15.71800        31.44100
H           4.13800        16.68000        31.54200
C           4.22200        13.46100        32.79900
O           3.46800        13.17600        33.98600
C           3.93600        11.90200        34.45300
O           3.23600        11.78400        35.70000
C           4.02500        12.09300        36.85800
C           3.52800        13.42100        37.40400
O           3.72300        14.41400        36.38600
H           3.35100        13.94500        35.58500
C           4.08800        13.83600        38.75500
O           3.55500        15.06700        39.26500
H           3.92200        15.23700        40.17900
C           4.35400         9.72100        37.58300
O           3.89100         8.94500        36.46800
H           4.26400         8.02000        36.54400
C           3.81500        11.08600        37.97700
O           4.52400        11.55800        39.13200
C           3.87700        12.69000        39.73100
O           4.57900        12.76500        40.98000
C           8.02900        24.19100         2.95300
C           7.63000        25.59000         3.39100
O           7.97400        26.63500         2.46900
H           7.75000        26.32400         1.54500
C           8.16000        25.89800         4.78200
O           7.58000        27.11100         5.28500
H           7.90400        27.23000         6.22300
C           8.25600        21.85000         3.56000
O           7.68300        21.04400         2.52000
H           7.79300        20.09500         2.81500
C           7.65400        23.17000         4.01500
O           8.30400        23.53300         5.24200
C           7.80900        24.78000         5.75000
O           8.61100        24.92700         6.93100
C           7.97300        24.67900         8.19200
C           8.53800        23.35500         8.68000
O           8.31400        22.37300         7.65800
H           8.58900        22.80200         6.79700
C           7.87600        22.80400         9.93200
O           8.43500        21.58300        10.44000
H           8.02500        21.38800        11.33100
C           7.55100        27.05600         9.02600
O           8.00300        27.70600         7.82900
H           7.87600        28.69800         7.84700
C           8.05100        25.65800         9.35200
O           7.41300        25.17900        10.54500
C           7.94600        23.91500        10.96700
O           7.25700        23.51500        12.16000
C           7.74700        24.01900        13.41100
C           7.00700        25.28100        13.82300
O           7.25500        26.34500        12.89200
H           7.22300        26.00900        11.95100
C           7.33100        25.68900        15.25100
O           6.61800        26.77700        15.85600
H           6.99500        26.88000        16.77700
C           8.24000        21.56900        14.21600
O           7.95500        20.83200        13.01800
H           7.86800        19.88600        13.33000
C           7.58400        22.92000        14.44800
O           8.00100        23.37900        15.74300
C           7.25800        24.51400        16.21200
O           7.98300        24.96200        17.36700
C           7.59400        24.54300        18.68300
C           8.24300        23.22900        19.08500
O           8.16000        22.14100        18.15300
H           8.43800        22.43200        17.23700
C           7.87100        22.92300        20.52700
O           8.30200        21.62800        20.97000
H           7.85300        21.37100        21.82600
C           7.14500        26.93300        19.32600
O           7.45200        27.70700        18.15700
H           7.34500        28.69900        18.21700
C           7.97100        25.68900        19.60700
O           7.70600        25.33600        20.97300
C           8.17900        24.07500        21.47000
O           7.33100        23.89700        22.61400
C           7.82600        24.18100        23.93000
C           7.37200        25.52600        24.47500
O           7.63200        26.58700        23.54500
H           7.52200        26.16200        22.64700
C           7.91800        25.84800        25.85600
O           7.28200        27.01200        26.40300
H           7.58100        27.11500        27.35200
C           7.67400        21.69100        24.58900
O           7.37400        20.98600        23.37700
H           7.53700        20.00600        23.49300
C           7.40300        23.14200        24.95500
O           8.03900        23.50600        26.18900
C           7.53900        24.71000        26.78900
O           8.32200        24.73700        27.99100
C           7.57000        24.45200        29.18000
C           7.95900        23.06000        29.65200
O           7.37900        22.20700        28.65500
H           7.69500        22.56300        27.77500
C           7.48700        22.68300        31.04600
O           8.03500        21.47900        31.60200
H           7.71900        21.38000        32.54500
C           7.25000        26.76000        29.97700
O           7.63200        27.59700        28.87600
H           7.53600        28.58200        29.02000
C           7.95900        25.44600        30.26200
O           7.38400        25.01800        31.50500
C           7.84500        23.77100        32.04600
O           7.04600        23.80800        33.23700
C           7.74100        24.09000        34.46100
C           7.11400        25.36400        35.00300
O           7.07200        26.39000        34.00100
H           6.72700        25.98400        33.15500
C           7.63300        25.82900        36.35400
O           7.11600        27.07400        36.84600
H           7.56200        27.27700        37.71700
C           7.90200        21.67100        35.30900
O           7.22100        20.97700        34.25300
H           7.36000        19.98800        34.30700
C           7.39600        23.08500        35.54700
O           8.16800        23.48300        36.68900
C           7.63800        24.65700        37.32200
O           8.50300        24.80500        38.45800
C           7.88300        24.61900        39.73900
C           8.51400        23.32700        40.23200
O           8.29300        22.25800        39.30100
H           8.55100        22.62200        38.40600
C           8.01100        22.97700        -0.44400
O           8.51700        21.75300         0.10800
H           8.01200        21.67200         0.96800
C           7.92800        27.09600        40.29600
O           8.34500        27.84700        39.14600
H           8.16900        28.82800        39.22300
C           8.28800        25.68900        -1.34100
O           7.78100        25.40700        -0.02800
C           8.28900        24.16000         0.46800
O           7.53200        23.85700         1.64900
C           3.67200        20.55200         0.14800
C           4.09200        19.21900        42.82900
O           3.93400        18.19800        41.83300
H           4.09400        18.56700        40.91700
C           3.46700        18.80600         2.08600
O           4.02700        17.60400         2.63400
H           3.90100        17.38900         3.60300
C           3.62600        23.03300         0.94800
O           4.20200        23.66900        -0.20300
H           3.87900        24.60800        -0.08500
C           4.08400        21.60100         1.16900
O           3.47500        21.26500         2.42500
C           3.83600        19.98700         2.96800
O           3.00600        19.92300         4.13700
C           3.70800        20.15200         5.36700