# freq=raman b3lyp/6-31+g(2d,p) geom=connectivity
280 7000.com
280 7000.com
C           8.06300         8.00400         2.89400
0 1
O           7.94800        10.33000        23.35400
H           7.65800         9.82900        22.53800
C           8.38800         9.68700        25.69100
O           7.83000        10.91800        26.17100
H           8.14800        10.98200        27.11700
C           8.83500         5.57200        24.67200
O           8.28800         4.78900        23.60100
H           8.41100         3.80700        23.74500
C           8.18700         6.93000        24.89200
O           8.73900         7.36700        26.14200
C           8.14700         8.55800        26.68000
O           8.84300         8.77100        27.91600
C           8.18600         8.34100        29.11700
C           8.72100         7.04500        29.70500
O           8.54800         6.02800        28.70700
H           9.09500         6.34800        27.93400
C           8.13900         6.66100        31.05500
O           8.91200         5.66500        31.74000
H           8.48400         5.45500        32.61900
C           7.78300        10.74400        29.92100
O           8.24100        11.48700        28.78200
H           8.14600        12.44400        29.05400
C           8.46300         9.40700        30.16500
O           7.86600         9.05000        31.42000
C           8.24400         7.81300        32.04200
O           7.44500         7.56600        33.20800
C           8.02000         7.90900        34.47800
C           7.56300         9.28000        34.94900
O           8.03300        10.24700        33.99800

