# freq=raman b3lyp/6-31+g(d,p) geom=connectivity

450 10000.com

0 1
O          10.80800         8.47800        11.28100
C          11.72000         8.18100        12.34800
C          12.09400         9.56900        12.83900
O          13.20300         9.86800        11.97800
H          12.93300         9.60800        11.05100
C          12.63500         9.56500        14.26000
O          12.70000        10.90600        14.76500
H          13.00200        11.60500        14.11600
C          11.12700         5.95800        13.03500
O          10.88100         4.91500        13.98900
H          10.88000         4.05100        13.48600
C          10.99900         7.41600        13.44600
O          11.64400         7.42300        14.72800
C          11.76400         8.76700        15.21700
O          12.34700         8.54500        16.50900
C          11.51100         8.55400        17.67500
C          11.02100         7.23200        18.24500
O          10.30600         6.50000        17.24000
H          10.63500         6.88000        16.37600
C          10.19800         7.42800        19.50800
O           9.55800         6.25700        20.03600
H           9.01000         6.02000        19.23400
C          12.95600        10.44300        18.58200
O          13.78700        10.78300        19.70000
H          14.67300        10.32400        19.77200
C          12.14500         9.19700        18.89800
O          11.38800         9.30200        20.11300
C          11.02100         8.01900        20.64100
O          10.31100         8.23700        21.86900

