# freq=raman b3lyp/6-31+g(d,p) geom=connectivity

450 6000.com

0 1
O          10.35700         7.84900        11.52000
C          11.22700         7.91700        12.65900
C          11.59600         9.29100        13.19300
O          12.58800         9.74400        12.26100
H          12.25200         9.73700        11.31900
C          12.25900         9.55400        14.53500
O          12.33300        10.87900        15.08200
H          12.59300        11.51000        14.35200
C          10.03100         5.90100        13.74300
O          11.16200         5.07300        13.43600
H          10.77700         4.17800        13.21200
C          10.56700         7.31600        13.88900
O          11.49400         7.38400        14.98300
C          11.50700         8.70400        15.54600
O          12.11600         8.46300        16.82200
C          11.39900         8.65800        18.05000
C          10.81500         7.29000        18.36300
O          10.09500         6.63200        17.31100
H          10.58300         6.86400        16.47000
C          10.14200         7.26800        19.72600
O           9.17900         6.28400        20.13000
H           8.34000         6.54700        19.65100
C          12.93500        10.19700        19.01100
O          11.97700        11.26500        19.00500
H          12.26900        12.01400        18.41100
C          12.28000         8.85100        19.27400
O          11.75700         8.74900        20.60600
C          11.07100         7.52400        20.90200
O          10.49000         8.02400        22.11500

