# freq=raman b3lyp/6-31+g(2df,p) geom=connectivity

450 5000.com

0 1
 O                 10.11100000    7.42000000   11.27500000
 C                 10.89300000    7.41300000   12.47900000
 C                 10.89800000    8.86700000   12.92000000
 O                 11.60000000    9.82800000   12.11800000
 H                 11.30400000   10.01600000   11.18200000
 C                 11.36800000    9.18400000   14.33100000
 O                 11.28100000   10.52800000   14.82700000
 H                 11.90100000   10.99000000   14.19300000
 C                 10.26400000    5.05800000   13.17900000
 O                  9.80500000    4.07900000   14.12200000
 H                  9.59900000    3.30400000   13.52600000
 C                 10.26200000    6.53300000   13.54600000
 O                 10.83800000    6.91300000   14.80500000
 C                 10.56700000    8.25600000   15.23000000
 O                 11.30900000    8.18100000   16.45500000
 C                 10.59300000    8.25000000   17.69700000
 C                 10.34400000    6.80200000   18.08500000
 O                  9.82600000    5.88600000   17.10900000
 H                 10.17800000    6.19400000   16.22500000
 C                  9.40900000    6.80800000   19.28300000
 O                  8.83700000    5.61100000   19.83100000
 H                  8.45900000    5.15800000   19.02400000
 C                 11.99700000   10.18700000   18.41500000
 O                 12.66800000   10.89600000   19.46700000
 H                 13.57800000   10.48500000   19.52200000
 C                 11.38600000    8.86200000   18.84000000
 O                 10.45700000    8.85700000   19.93400000
 C                 10.12700000    7.54100000   20.40400000
 O                  9.38300000    7.63400000   21.62700000
 H                  9.99089321    7.69033780   22.36787239
 H                 11.03957627    7.02152259   20.60954262
 H                  8.57998284    7.42317724   19.00159723
 H                 11.28044495    6.40436531   18.41644761
 H                  9.66471132    8.76583338   17.56624814
 H                 12.18641237    8.19515888   19.08405525
 H                 11.21774222   10.81095381   18.02985203
 H                 10.69574896    7.42442644   10.51365313
 H                 11.26923445    4.79895107   12.91958267
 H                  9.66646760    4.95148525   12.29780216
 H                  9.23187954    6.81802611   13.59611941
 H                 11.89034663    7.08626074   12.27057457
 H                  9.87097039    9.16544165   12.88770822
 H                 12.39458218    8.88955362   14.39680537
 H                  9.53065442    8.49664118   15.34392836
 H                 12.70063754    9.99923367   17.63107524

 1 2 1.0 37 1.0
 2 3 1.0 12 1.0 41 1.0
 3 4 1.0 6 1.0 42 1.0
 4 5 1.0
 5
 6 7 1.0 14 1.0 43 1.0
 7 8 1.0
 8
 9 10 1.0 12 1.0 38 1.0 39 1.0
 10 11 1.0
 11
 12 13 1.0 40 1.0
 13 14 1.0
 14 15 1.0 44 1.0
 15 16 1.0
 16 17 1.0 26 1.0 34 1.0
 17 18 1.0 20 1.0 33 1.0
 18 19 1.0
 19
 20 21 1.0 28 1.0 32 1.0
 21 22 1.0
 22
 23 24 1.0 26 1.0 36 1.0 45 1.0
 24 25 1.0
 25
 26 27 1.0 35 1.0
 27 28 1.0
 28 29 1.0 31 1.0
 29 30 1.0
 30
 31
 32
 33
 34
 35
 36
 37
 38
 39
 40
 41
 42
 43
 44
 45

