# freq=raman b3lyp/6-31+g(d,p) geom=connectivity

500 8000.com

0 1
O           8.81900         6.03300        22.26300
C           9.48900         6.38500        23.48200
C           8.91300         7.66300        24.07200
O           9.14800         8.77100        23.19100
H           9.02900         8.40800        22.26700
C           9.44900         8.07100        25.43400
O           8.99300         9.26400        26.08800
H           9.27100        10.01900        25.49300
C           9.52700         3.79500        24.17800
O           9.09700         2.80200        25.12000
H           9.01800         1.90500        24.68600
C           9.32600         5.26700        24.50000
O           9.92800         5.63700        25.74800
C           9.39600         6.83900        26.32300
O          10.20700         6.86900        27.50600
C           9.55700         6.49600        28.73000
C           9.53200         4.99800        28.98100
O           8.99000         4.14000        27.96600
H           9.28200         4.21600        27.01300
C           8.74900         4.71100        30.25200
O           8.89800         3.28600        30.33100
H           8.80400         3.08200        29.35600
C          10.31400         8.52900        29.79500
O          10.98200         9.39000        30.72900
H          10.66100        10.31400        30.52200
C          10.30100         7.01700        29.94900
O           9.78900         6.68400        31.24700
C           9.49600         5.29300        31.44200
O           8.80700         5.01900        32.67000

