# freq=raman b3lyp/6-31+g(2d,p) geom=connectivity
310 10000.com
310 10000.com
C           8.34300         7.90200         2.92900
0 1
O           7.63700        10.17700         2.49400
H           7.61700         9.83900         1.55300
C           8.13100         9.57500         4.73600
O           7.48900        10.69900         5.35600
H           7.93700        10.91800         6.22300
C           8.69600         5.53100         3.50200
O           8.09200         4.74400         2.46600
H           8.15900         3.74800         2.53700
C           8.03700         6.82400         3.95500
O           8.61400         7.14400         5.23000
C           8.06700         8.39000         5.68600
O           8.85000         8.71100         6.84400
C           8.24200         8.34600         8.09200
C           8.84600         7.14900         8.80900
O           8.51800         6.13600         7.84800
H           8.95200         6.39300         6.98400
C           8.21600         6.73700        10.13000
O           8.94600         5.62400        10.66800
H           8.67300         5.37200        11.59600
C           7.99200        10.83100         8.80900
O           8.63000        11.56000         7.75100
H           8.37400        12.52300         7.83900
C           8.43300         9.41700         9.15300
O           7.86200         9.14400        10.44000
C           8.28000         7.92600        11.07400
O           7.46700         7.73100        12.24100
C           8.05900         7.83800        13.54400
C           7.71500         9.22400        14.06500
O           8.06100        10.25300        13.12600
H           7.97700         9.98800        12.16600
C           8.25600         9.55000        15.44700
O           7.60100        10.72900        15.93700
H           7.99700        11.13200        16.76200
C           7.95200         5.35600        14.18300
O           7.49900         4.89300        12.90200
H           7.61600         3.90100        12.87600
C           7.60800         6.79100        14.55000
O           8.23500         7.16700        15.78400
C           7.86800         8.41800        16.38400
O           8.72300         8.60000        17.52200
C           8.02100         8.42900        18.76200
C           8.49000         7.03900        19.15800
O           8.04600         6.02800        18.24100
H           8.25800         6.25500        17.29000
C           8.03800         6.75100        20.58100
O           8.68700         5.63700        21.21000
H           8.31900         5.47900        22.12600
C           7.98000        10.85900        19.55000
O           8.38800        11.45800        18.31100
H           8.29200        12.44700        18.42800
C           8.39500         9.42700        19.84600
O           7.85300         9.16900        21.14900
C           8.38400         7.89000        21.52600
O           7.82900         7.56000        22.80700
C           8.45200         8.03700        24.00900
C           8.16100         9.42700        24.55000
O           8.36000        10.53300        23.65700
H           8.35700        10.05200        22.78000
C           8.49600         9.87900        25.96200
O           7.62300        10.92000        26.42300
H           8.03400        11.30600        27.24900
C           8.51900         5.60900        24.87500
O           7.76200         4.81600        23.94900
H           7.96900         3.85900        24.15200
C           8.10600         7.05200        25.11400
O           8.76800         7.44600        26.32500
C           8.21600         8.66800        26.83600
O           9.07400         8.83200        27.97500
C           8.45600         8.34300        29.17400
C           8.93400         6.99800        29.69500
O           8.88300         5.91200        28.75800
H           9.01800         6.39600        27.89300
C           8.21700         6.52500        30.94900
O           8.64800         5.27200        31.50100
H           8.27600         5.13300        32.41900
C           8.11900        10.75800        30.10100
O           8.54500        11.56300        28.99200
H           8.53800        12.53800        29.21300
C           8.70700         9.36600        30.27000
O           8.06800         8.88700        31.46200
C           8.47100         7.61100        31.98100
O           7.75200         7.44400        33.21200
C           8.44400         7.62400        34.45600
C           7.88000         8.98400        34.83400
O           8.34800        10.02200        33.96100
H           8.09200         9.69200        33.05200
C           8.25500         9.41200        36.24400
O           7.63000        10.64200        36.63700
H           7.71400        10.82000        37.61800
C           8.31500         5.18100        35.21000
O           7.69700         4.58700        34.05900
H           7.77800         3.60000        34.19800
C           7.93100         6.62600        35.48100
O           8.42600         7.01700        36.77000
C           8.01900         8.30400        37.25800
O           8.84100         8.52600        38.41300
C           8.32800         8.17800        39.70700
C           8.79800         6.82700        40.22300
O           8.81300         5.77200        39.25000
H           8.94200         6.31200        38.41800
C           8.27000         6.54100        -0.43500
O           8.66500         5.28200         0.13000
H           8.33300         5.17000         1.06600
C           8.10000        10.66400        40.37700
O           8.34200        11.33000        39.12900
H           8.47300        12.31300        39.25800
C           8.55900         9.26300        -1.31600
O           8.10600         8.89500        -0.00500
C           8.58300         7.65900         0.54600
O           7.71200         7.57200         1.68300
C           3.97400         4.25800         0.10500
C           4.10500         2.87000        42.76800
O           3.71100         1.89000        41.79600
H           3.87700         2.21300        40.86400
C           3.47200         2.68600         2.08300
O           3.75800         1.37000         2.57900
H           3.38700         1.33000         3.50700
C           3.88600         6.67900         0.88900
O           4.34400         7.40900        -0.25800
H           4.03100         8.35600        -0.18600
C           4.34100         5.26000         1.18700
O           4.01500         5.09200         2.57400
C           4.09900         3.72400         2.99900
O           3.23500         3.76400         4.14400
C           3.97500         4.03600         5.34300
C           3.59200         5.40400         5.88400
O           3.93200         6.42700         4.93700
H           3.96600         5.98000         4.04400
C           4.14200         5.81500         7.24000
O           3.59300         7.06600         7.68100
H           3.74200         7.30300         8.64000
C           3.98500         1.62700         6.18800
O           3.40300         0.84200         5.13700
H           3.80900        -0.06500         5.24500
C           3.68200         3.08500         6.49200
O           4.38900         3.43600         7.69100
C           3.80700         4.65900         8.16700
O           4.57400         4.79700         9.37200
C           3.95700         4.46100        10.62300
C           4.46200         3.09700        11.06400
O           4.44000         2.09700        10.03400
H           4.46900         2.65300         9.20300
C           3.87300         2.66600        12.39700
O           4.50100         1.49500        12.93900
H           4.25100         1.32900        13.89300
C           3.65900         6.85300        11.53200
O           4.00500         7.57100        10.33800
H           4.08900         8.55200        10.51400
C           4.22500         5.45800        11.73900
O           3.79500         4.95000        13.01000
C           4.21600         3.66500        13.49100
O           3.43900         3.48800        14.68400
C           4.01400         3.86600        15.94300
C           3.51200         5.19700        16.47900
O           3.85000         6.26000        15.57600
H           3.25400         6.17700        14.77700
C           3.99400         5.50500        17.88700
O           3.60200         6.74500        18.49400
H           4.04500         6.91700        19.37400
C           4.50400         1.50000        16.57300
O           4.13400         0.72300        15.42500
H           4.18100        -0.23800        15.69600
C           3.77600         2.77300        16.97300
O           4.33000         3.10700        18.25400
C           3.75200         4.30600        18.78900
O           4.55700         4.42000        19.97100
C           3.85800         4.22900        21.21000
C           4.09100         2.80300        21.68000
O           3.78200         1.82500        20.67600
H           3.97000         2.27100        19.80000
C           3.44400         2.53400        23.02900
O           3.68000         1.18400        23.45300
H           3.49800         1.05000        24.42700
C           3.85600         6.58800        21.98300
O           4.51200         7.35500        20.96200
H           4.07000         8.25200        20.94000
C           4.36100         5.18500        22.27900
O           3.77100         4.90100        23.55500
C           4.09800         3.55900        23.94200
O           3.59300         3.37200        25.27200
C           4.27200         3.82900        26.45000
C           3.88900         5.22900        26.90100
O           4.24000         6.27400        25.98200
H           3.76800         6.10500        25.11700
C           4.58300         5.55900        28.21200
O           4.05900         6.83200        28.61700
H           4.38500         6.91200        29.55900
C           4.15000         1.34200        27.32700
O           3.70400         0.67900        26.13500
H           4.08900        -0.24300        26.16600
C           3.93600         2.83100        27.54600
O           4.63700         3.22100        28.73600
C           4.15400         4.48900        29.20300
O           4.94800         4.57700        30.39600
C           4.24900         4.28900        31.61600
C           4.29800         2.85200        32.10600
O           3.92000         1.93700        31.06700
H           4.43100         2.19900        30.24900
C           3.49400         2.72700        33.39000
O           3.84300         1.48900        34.02600
H           3.63500         1.34700        34.99400
C           4.34300         6.77400        32.25100
O           5.08100         7.47100        31.23700
H           4.85500         8.42600        31.43100
C           4.59500         5.33400        32.66500
O           3.85800         5.18800        33.88800
C           3.90900         3.83100        34.34900
O           3.32300         3.77500        35.65800
C           4.22800         3.86600        36.76800
C           3.99600         5.24800        37.35800
O           4.64500         6.18900        36.49000
H           4.26600         6.20000        35.56500
C           4.50100         5.51700        38.76600
O           4.04900         6.77000        39.29900
H           4.32800         6.95000        40.24200
C           4.32700         1.59800        37.55700
O           3.64900         0.87300        36.52100
H           3.99200        -0.06300        36.60500
C           3.72900         2.95700        37.88000
O           4.26200         3.16700        39.19600
C           3.96700         4.46700        39.72700
O           4.71900         4.47100        40.94900
C           7.80400        15.92600         3.06200
C           7.23100        17.24000         3.56600
O           7.39000        18.32900         2.64600
H           7.18500        17.89000         1.77100
C           7.73700        17.69800         4.92500
O           7.02100        18.76900         5.55600
H           7.41300        18.77800         6.47600
C           8.37200        13.67200         3.69700
O           7.67800        12.83500         2.76100
H           7.66500        11.88100         3.06200
C           7.54700        14.87400         4.12800
O           8.08300        15.33800         5.37500
C           7.50200        16.54600         5.88800
O           8.32700        16.92900         6.99800
C           7.94200        16.46400         8.29900
C           8.51300        15.11700         8.71200
O           8.32800        14.07800         7.74000
H           8.27000        14.53400         6.85200
C           7.98500        14.74600        10.08800
O           8.58500        13.56300        10.63400
H           8.16800        13.36400        11.52000
C           7.78500        18.87400         9.03200
O           8.28300        19.53000         7.85700
H           8.13000        20.50900         7.99100
C           8.31800        17.48800         9.35800
O           7.69300        17.18800        10.61400
C           8.17500        15.90900        11.04900
O           7.55900        15.61700        12.31100
C           8.14900        15.93800        13.57900
C           7.55600        17.26700        14.01800
O           8.09000        18.30000        13.17700
H           7.89100        18.06700        12.22500
C           7.93800        17.66800        15.43300
O           7.20600        18.81900        15.87900
H           7.55700        19.05000        16.78700
C           8.03400        13.45600        14.26500
O           7.67600        12.79600        13.04200
H           7.80500        11.80500        13.06100
C           7.71700        14.90300        14.60500
O           8.25700        15.20600        15.90000
C           7.75900        16.47200        16.35400
O           8.63300        16.61300        17.48400
C           7.93900        16.44600        18.72900
C           8.32800        15.06700        19.23700
O           8.11100        13.94400        18.37000
H           8.44700        14.22500        17.47100
C           7.88600        14.76400        20.65900
O           8.49200        13.58500        21.20800
H           8.39800        13.43800        22.19200
C           7.75200        18.88500        19.39000
O           8.40000        19.65000        18.36300
H           8.13600        20.61100        18.44400
C           8.25500        17.50300        19.77500
O           7.74000        17.09100        21.04900
C           8.25800        15.88100        21.62000
O           7.46000        15.71800        22.80200
C           8.10400        16.08800        24.03000
C           7.61500        17.45200        24.48800
O           7.53900        18.45400        23.46300
H           7.47200        17.90900        22.62700
C           8.25600        17.81600        25.81700
O           7.87700        19.05400        26.43600
H           8.32000        19.15400        27.32800
C           8.05200        13.67400        24.88200
O           8.43600        13.12800        23.61200
H           8.37300        12.13700        23.72900
C           7.71100        15.13200        25.14400
O           8.28000        15.50200        26.40800
C           7.89300        16.79800        26.88700
O           8.70600        17.04500        28.04300
C           8.18400        16.55900        29.28900
C           8.86000        15.25800        29.69100
O           8.61400        14.26000        28.69000
H           8.67800        14.80000        27.85000
C           8.47500        14.81900        31.09400
O           9.03800        13.57100        31.52600
H           8.58400        13.25700        32.35900
C           8.30400        19.01900        30.01400
O           8.74500        19.75200        28.86100
H           8.58000        20.72900        28.99300
C           8.71300        17.58000        30.28300
O           8.24500        17.16100        31.57400
C           8.68700        15.91300        32.12800
O           7.95300        15.56900        33.31100
C           8.40900        16.02900        34.59200
C           7.98200        17.40600        35.07300
O           8.38000        18.43500        34.15600
H           8.30300        18.14100        33.20400
C           8.32300        17.69800        36.52500
O           7.70900        18.92900        36.93700
H           7.82200        19.19500        37.89400
C           8.11800        13.56900        35.31100
O           7.66000        12.73500        34.23700
H           7.89400        11.78900        34.46000
C           7.82500        15.03500        35.58300
O           8.29500        15.28900        36.91500
C           7.96600        16.56800        37.47700
O           8.76000        16.67800        38.66700
C           7.99300        16.42300        39.85200
C           8.46000        15.07200        40.36900
O           8.40600        14.08500        39.32900
H           8.73500        14.50400        38.48300
C           7.78500        14.73100        -0.36600
O           8.47900        13.61600         0.21200
H           8.24200        13.41700         1.16300
C           7.68300        18.82100        40.58300
O           7.95000        19.66100        39.45000
H           7.98300        20.63200        39.68700
C           8.27300        17.46400        -1.13700
O           7.53600        17.16200         0.05600
C           7.90100        15.89000         0.61100
O           7.19800        15.55300         1.81600
C           4.00900        12.53500         0.20600
C           4.25700        11.11100        42.73300
O           3.77600        10.06300        41.87900
H           4.17000        10.19700        40.97000
C           3.58600        10.89500         2.02600
O           3.94000         9.64200         2.62800
H           3.39500         9.63400         3.46700
C           3.72200        14.99700         0.82600
O           4.18500        15.70400        -0.33400
H           4.12100        16.67900        -0.12000
C           4.21800        13.62300         1.24600
O           3.69100        13.33600         2.54900
C           4.00000        12.00300         2.98100
O           3.20800        11.90700         4.17400
C           3.83900        12.25200         5.41600
C           3.33900        13.56300         5.99900
O           3.35300        14.62400         5.03300
H           3.40900        14.15800         4.15000
C           4.06600        13.90100         7.29100
O           3.74100        15.19500         7.82000
H           4.13100        15.34800         8.72800
C           3.89400         9.78500         6.25000
O           3.37500         9.02000         5.15300
H           3.48900         8.03800         5.30700
C           3.50200        11.23400         6.49300
O           4.13800        11.53400         7.74300
C           3.76900        12.80400         8.30000
O           4.60100        12.91000         9.46500
C           4.05200        12.49800        10.72500
C           4.48000        11.11800        11.19800
O           4.23600        10.17200        10.14600
H           4.40400        10.64000         9.27900
C           3.91400        10.80600        12.57400
O           4.51600         9.67000        13.21200
H           4.04000         9.44000        14.06100
C           3.93500        14.93500        11.50600
O           4.58500        15.77200        10.53900
H           4.41000        16.74300        10.70500
C           4.37400        13.51200        11.81100
O           3.72600        13.23200        13.06000
C           4.09600        11.94100        13.56700
O           3.36300        11.69800        14.77700
C           4.01300        12.02800        16.01300
C           3.56600        13.40400        16.48000
O           3.85800        14.48800        15.58700
H           3.51100        14.16700        14.70600
C           4.08400        13.68300        17.88100
O           3.54700        14.93900        18.32100
H           3.81700        15.18600        19.25100
C           3.95400         9.58800        16.80000
O           3.52400         8.86100        15.63900
H           3.84900         7.91600        15.66300
C           3.58900        11.03600        17.08400
O           4.15300        11.31600        18.37300
C           3.77900        12.59700        18.90000
O           4.47800        12.72400        20.14600
C           3.80600        12.49900        21.39400
C           4.35400        11.15000        21.82800
O           4.04800        10.10700        20.89100
H           4.54300        10.27200        20.03700
C           3.82700        10.79800        23.20900
O           4.20800         9.46900        23.59200
H           4.01400         9.35300        24.56600
C           3.68400        14.97000        22.05100
O           3.81200        15.51900        20.73200
H           3.88900        16.51300        20.81600
C           4.21500        13.58400        22.37700
O           3.88900        13.13900        23.70200
C           4.36300        11.86200        24.15300
O           3.54400        11.90500        25.33100
C           4.31800        12.19500        26.50400
C           4.00700        13.57200        27.06800
O           4.43700        14.50900        26.07000
H           4.03500        14.23800        25.19500
C           4.61800        13.85600        28.43000
O           3.95500        15.06200        28.83800
H           4.29500        15.34600        29.73400
C           4.21800         9.78300        27.38700
O           3.77500         8.97600        26.28700
H           3.93000         8.02900        26.56800
C           3.87400        11.24700        27.60700
O           4.56500        11.51700        28.83600
C           4.17800        12.77600        29.40500
O           4.99500        12.58400        30.56900
C           4.30500        12.38900        31.81200
C           4.42500        10.99600        32.40900
O           4.21300        10.02700        31.37200
H           4.42800        10.44500        30.48900
C           3.46800        10.77700        33.57000
O           3.53500         9.41400        34.01400
H           3.33300         9.28600        34.98500
C           4.11100        14.87600        32.67700
O           4.42900        15.58100        31.46800
H           4.29200        16.57000        31.51800
C           4.52000        13.42900        32.89900
O           3.90300        13.09800        34.15100
C           4.09100        11.73800        34.56900
O           3.28700        11.60400        35.75100
C           4.04900        11.87900        36.93500
C           3.59500        13.25800        37.38500
O           3.96200        14.32900        36.50200
H           3.61700        14.09100        35.59400
C           4.20900        13.67200        38.71200
O           3.77100        14.96400        39.15800
H           4.06100        14.97800        40.11500
C           4.12600         9.48200        37.84600
O           3.52200         8.76000        36.76300
H           3.61300         7.78400        36.96300
C           3.77500        10.93900        38.09800
O           4.43300        11.40300        39.28600
C           4.01000        12.66200        39.83000
O           4.73600        12.82800        41.05600
C           7.87800        24.20800         3.20500
C           7.40900        25.58300         3.65400
O           7.62900        26.53300         2.60100
H           7.45200        25.96800         1.79500
C           7.89900        25.87400         5.06300
O           7.45900        27.13100         5.59800
H           7.91300        27.19100         6.48600
C           7.79900        21.70600         3.98300
O           7.76700        21.03200         2.71600
H           7.64900        20.05800         2.91000
C           7.39100        23.15600         4.18700
O           8.10100        23.47000         5.39300
C           7.66300        24.69700         5.99600
O           8.55400        24.64200         7.11900
C           8.02800        24.46300         8.44300
C           8.32800        23.04500         8.90100
O           7.92500        22.06400         7.93400
H           8.07700        22.51500         7.05400
C           8.05200        22.67100        10.34800
O           8.69700        21.48800        10.84200
H           8.39700        21.33300        11.78300
C           8.15800        26.79800         9.19200
O           8.22000        27.67500         8.05700
H           7.98800        28.61400         8.31000
C           8.67400        25.39300         9.45600
O           8.03500        25.15100        10.71800
C           8.39000        23.85900        11.23400
O           7.48700        23.87800        12.34900
C           7.92200        24.22600        13.67200
C           7.33100        25.56200        14.09100
O           7.81100        26.53700        13.15300
H           7.59400        26.23500        12.22500
C           7.90000        26.04700        15.41500
O           7.22600        27.18000        15.98100
H           7.56700        27.30400        16.91300
C           8.02800        21.78100        14.55000
O           7.69200        20.92900        13.44500
H           7.88000        19.96800        13.64700
C           7.57300        23.21700        14.75400
O           8.29800        23.57300        15.94000
C           7.85900        24.86800        16.37400
O           8.73100        25.02500        17.50300
C           8.08300        24.70000        18.74100
C           8.55100        23.34200        19.23600
O           8.23100        22.25200        18.35900
H           8.32500        22.64400        17.44400
C           8.09900        22.98000        20.64200
O           9.04200        22.02700        21.15200
H           8.57500        21.59400        21.92300
C           7.61100        27.01900        19.58100
O           8.06200        27.77200        18.44500
H           8.06400        28.73300        18.72100
C           8.36300        25.72200        19.83200
O           7.82800        25.36600        21.11500
C           8.20800        24.09700        21.66700
O           7.29400        24.05100        22.77200
C           8.00800        24.25300        24.00000
C           7.70600        25.68300        24.42000
O           8.46500        26.52900        23.54400
H           8.23300        26.07000        22.68600
C           8.00300        26.04800        25.86600
O           7.39200        27.26100        26.32800
H           7.72200        27.46100        27.25100
C           8.11800        21.92200        24.82900
O           7.83200        21.18800        23.62900
H           7.65400        20.25300        23.93800
C           7.48700        23.28700        25.05200
O           7.77000        23.62000        26.41900
C           7.45300        24.97000        26.78600
O           8.14100        25.12700        28.03500
C           7.70700        24.50000        29.25100
C           8.30800        23.14300        29.58100
O           7.65900        22.28900        28.62700
H           7.71200        22.76900        27.75100
C           8.06900        22.81400        31.04500
O           9.01700        21.78200        31.35400
H           8.84800        21.46300        32.28700
C           7.16400        26.76800        30.04100
O           7.72600        27.70000        29.10600
H           7.54700        28.65600        29.34100
C           7.96000        25.51200        30.35600
O           7.46200        25.07500        31.62900
C           8.23700        23.94300        32.05000
O           7.55300        23.48700        33.22600
C           8.06900        23.86800        34.50900
C           7.38800        25.09900        35.08600
O           7.46900        26.21800        34.19100
H           7.30300        25.81400        33.29100
C           7.80500        25.56700        36.47100
O           7.24900        26.80500        36.93600
H           7.71600        27.03000        37.79100
C           8.39000        21.55000        35.33400
O           8.18700        20.87800        34.08200
H           8.45700        19.91700        34.13800
C           7.71800        22.88400        35.61300
O           8.15000        23.19000        36.94700
C           7.57600        24.41200        37.43300
O           8.31300        24.77200        38.61000
C           7.69000        24.47800        39.87000
C           8.32300        23.21300        40.42400
O           7.96700        22.09400        39.59800
H           7.85000        22.37200        38.64500
C           7.97200        22.92400        -0.18100
O           8.78200        21.90700         0.42500
H           8.31000        21.39500         1.14200
C           7.65200        26.96700        40.31800
O           8.50300        27.78200        39.50000
H           8.40500        28.77200        39.60400
C           7.97800        25.58700        -1.19300
O           7.39100        25.29200         0.08300
C           8.04200        24.16700         0.69000
O           7.37300        23.83400         1.91500
C           3.52100        20.85900         0.20100
C           3.88900        19.47600        42.77200
O           3.77200        18.43800        41.78700
H           3.81100        18.74700        40.83700
C           3.24200        19.07800         2.03500
O           3.52200        17.72300         2.41600
H           3.26900        17.60500         3.37700
C           3.46000        23.19400         0.92200
O           4.19600        23.85300        -0.11900
H           4.07000        24.84100        -0.21700
C           3.96400        21.81100         1.30100
O           3.26700        21.52200         2.52100
C           3.75100        20.22400         2.89400
O           3.02100        19.98200         4.10500
C           3.62700        20.21000         5.38600
C           3.34000        21.62200         5.87000