# freq=raman b3lyp/6-31+g(2d,p) geom=connectivity
320 6000.com
320 6000.com
C           8.16200         8.01500         3.10700
0 1
O           8.07700        10.30700        23.61300
H           7.85100         9.84800        22.75400
C           8.48300         9.53100        25.96800
O           8.07900        10.81000        26.47800
H           8.28700        10.87800        27.45400
C           8.69700         5.51700        24.74600
O           8.48800         4.88200        23.47700
H           8.55100         3.89500        23.62600
C           8.06800         6.84700        25.12700
O           8.63100         7.21500        26.39500
C           8.23700         8.45100        27.00800
O           9.06100         8.65600        28.16400
C           8.45800         8.47800        29.45400
C           9.06300         7.14300        29.85500
O           8.73100         6.01500        29.03200
H           8.72300         6.34700        28.08900
C           8.48600         6.94800        31.24800
O           9.03600         5.76400        31.84200
H           8.57400         5.43500        32.66600
C           8.10100        10.92800        30.15900
O           8.71200        11.53200        29.01000
H           8.67200        12.51800        29.17200
C           8.75700         9.58700        30.44900
O           8.35800         9.32900        31.80300
C           8.82500         8.04500        32.24400
O           7.97700         8.09700        33.40000
C           8.52300         8.28800        34.71300
C           8.03300         9.64100        35.20500
O           8.31400        10.59800        34.17400

