# freq=raman b3lyp/6-31+g(2d,p) geom=connectivity

423 8000/8000.com

0 1
C           7.98300         8.05500         3.04600
C           7.28300         9.29600         3.57500
O           7.22700        10.36100         2.61400
H           6.78700         9.96900         1.80600
C           7.82800         9.81100         4.89800
O           7.24500        10.97700         5.49800
H           7.87800        11.25400         6.22100
C           8.59800         5.70200         3.90400
O           8.57200         4.89100         2.72000
H           8.55800         3.93000         2.99500
C           7.75700         6.95700         4.07200
O           8.13500         7.36900         5.39400
C           7.79100         8.66800         5.89900
O           8.69300         8.83600         7.00200
C           8.28000         8.53000         8.34200
C           8.87700         7.20900         8.79900
O           8.53500         6.10500         7.94800
H           8.65200         6.47700         7.02700
C           8.40200         6.90700        10.21000
O           8.94700         5.67000        10.69200
H           8.58900         5.54900        11.61800
C           8.12400        10.96600         9.10900
O           8.55200        11.68500         7.94300
H           8.32400        12.65300         8.04600
C           8.62400         9.56100         9.40400
O           8.15800         9.26100        10.72800
C           8.65000         8.00900        11.22700
O           7.84300         7.74100        12.38300
C           8.28400         8.01900        13.72000
C           7.76300         9.31900        14.31100
O           7.90900        10.39100        13.36800
H           7.70300        10.01200        12.46600
C           8.43500         9.56500        15.65200
O           8.01500        10.85300        16.12600
H           8.45200        11.10900        16.98900
C           8.75600         5.64200        14.38800
O           8.48900         4.96000        13.15500
H           8.68400         3.98400        13.25100
C           7.98200         6.90900        14.71400
O           8.40500         7.21100        16.05200
C           7.94400         8.46400        16.57800
O           8.70700         8.67500        17.77500
C           8.15900         8.21200        19.01700
C           8.55900         6.79300        19.38600
O           8.03200         5.87900        18.41300
H           8.08700         6.35600        17.53600
C           7.98500         6.49200        20.76100
O           8.56300         5.22400        21.10500
H           8.35000         5.03700        22.06400
C           8.29200        10.63200        19.87800
O           8.55900        11.45800        18.73600
H           8.58000        12.44400        18.90200
C           8.65000         9.17000        20.09100
O           8.01600         8.83400        21.33300
C           8.47700         7.54000        21.74600
O           7.74300         7.30600        22.95700
C           8.32400         7.72400        24.20200
C           7.72500         9.08400        24.51800
O           8.09500        10.07800        23.55100
H           7.83700         9.82500        22.61900
C           8.25800         9.61400        25.84000
O           7.61600        10.83900        26.22400
H           7.87400        11.02500        27.17200
C           8.57100         5.39400        25.15900
O           8.32300         4.76300        23.89400
H           8.56700         3.79300        23.89200
C           7.93500         6.76500        25.31500
O           8.48400         7.21600        26.56200
C           8.16000         8.56400        26.93400
O           8.88800         8.88400        28.12900
C           8.17800         8.39100        29.27400
C           8.65700         7.03600        29.76900
O           8.57700         5.93800        28.84800
H           8.80000         6.24700        27.92300
C           8.09200         6.68100        31.13500
O           8.85900         5.56000        31.60000
H           8.43900         5.29200        32.46700
C           7.79500        10.76200        30.07800
O           8.29000        11.47600        28.93500
H           8.24400        12.46600        29.06700
C           8.34800         9.38600        30.41100
O           7.65300         9.06200        31.62400
C           8.22200         7.83900        32.11100
O           7.55800         7.71900        33.37800
C           8.16900         8.07600        34.62600
C           7.45400         9.31300        35.14600
O           7.33500        10.31700        34.12800
H           7.12900         9.88000        33.25300
C           8.13300         9.79500        36.41800
O           7.59400        11.02500        36.92300
H           7.89300        11.15400        37.86800
C           8.40100         5.62600        35.39200
O           7.80200         4.86200        34.33600
H           8.01100         3.91000        34.56100
C           7.80400         7.00200        35.63800
O           8.36800         7.43500        36.88500
C           7.87400         8.67400        37.41200
O           8.69400         8.76400        38.58600
C           8.12000         8.45100        39.86400
C           8.74900         7.15600        40.35100
O           8.68100         6.10000        39.38100
H           8.82100         6.58700        38.51900
C           8.21200         6.76500        -0.34400
O           8.98100         5.66300         0.15900
H           8.66500         5.45900         1.08600
C           7.72300        10.86400        40.58700
O           8.22200        11.66900        39.50900
H           8.01500        12.64000        39.62600
C           8.32000         9.51100        -1.13700
O           7.71200         9.08900         0.09200
C           8.31400         7.91100         0.64800
O           7.48300         7.60700         1.77800
C           4.00500         4.31300         0.18900
C           4.23300         2.91500        42.80600
O           3.65500         1.98000        41.88400
H           3.86800         2.36400        40.98500
C           3.62300         2.79100         2.13000
O           3.94000         1.44300         2.50400
H           3.71100         1.36700         3.47400
C           3.97300         6.74800         0.87800
O           4.40500         7.47900        -0.27900
H           4.11300         8.43500        -0.28800
C           4.56200         5.36900         1.12900
O           4.07400         5.14400         2.46000
C           4.29900         3.83500         3.00400
O           3.58400         3.99900         4.23700
C           4.35300         3.98200         5.44900
C           4.14700         5.38600         5.99400
O           4.46400         6.35000         4.97900
H           4.11600         5.95600         4.12900
C           4.76000         5.47500         7.38200
O           4.36500         6.77600         7.84300
H           4.51400         6.86200         8.82800
C           3.93000         1.51700         6.27100
O           3.66500         0.77900         5.06900
H           3.94000        -0.17000         5.22800
C           3.73100         3.01400         6.44200
O           4.22000         3.16800         7.78300
C           4.12200         4.48500         8.34300
O           4.73700         4.58500         9.63600
C           3.97400         4.34700        10.82800
C           4.29000         2.95000        11.33800
O           3.89900         1.98400        10.35200
H           3.97600         2.36800         9.43200
C           3.72400         2.58900        12.70100
O           4.09300         1.26200        13.10300
H           3.95500         1.12600        14.08400
C           4.01200         6.76400        11.61100
O           4.43900         7.42800        10.41300
H           4.09400         8.36600        10.43800
C           4.32300         5.31400        11.94700
O           3.75300         4.96800        13.21800
C           4.15000         3.67000        13.68200
O           3.26800         3.52600        14.80500
C           3.96100         3.92600        15.99600
C           3.51000         5.28600        16.50400
O           3.71800         6.30800        15.51900
H           3.65500         5.89900        14.60800
C           4.08200         5.66100        17.86100
O           3.66700         6.92100        18.40800
H           3.95300         6.94700        19.36600
C           4.24500         1.60300        16.79300
O           3.68000         0.74600        15.79000
H           3.99100        -0.16700        16.05200
C           3.56500         2.93200        17.07600
O           4.21300         3.28200        18.30800
C           3.72800         4.53300        18.81600
O           4.46400         4.61300        20.04600
C           3.91700         4.40000        21.35500
C           4.33600         2.98300        21.71000
O           4.04800         1.91800        20.79200
H           4.15400         2.22200        19.84500
C           3.96500         2.74800        23.16500
O           4.43600         1.53100        23.76200
H           4.04900         1.39900        24.67500
C           4.19900         6.86500        22.18300
O           4.47000         7.52100        20.93500
H           4.22800         8.48400        21.05100
C           4.50300         5.38600        22.35300
O           4.02500         5.12500        23.68000
C           4.47500         3.83000        24.10200
O           3.66300         3.67600        25.27600
C           4.29600         3.98000        26.52800
C           3.75500         5.30300        27.04400
O           4.12300         6.38000        26.17000
H           4.02700         6.05900        25.22800
C           4.19000         5.65100        28.45900
O           3.69500         6.91100        28.93600
H           4.08000         7.11500        29.83600
C           4.39800         1.48800        27.28600
O           3.91800         0.69200        26.19300
H           4.25800        -0.24300        26.29600
C           3.93700         2.91300        27.54900
O           4.45300         3.26000        28.84300
C           3.88800         4.47100        29.36700
O           4.69000         4.50900        30.55700
C           3.87500         4.34600        31.72700
C           4.23700         2.96300        32.24300
O           3.91300         1.95100        31.27800
H           3.92600         2.35600        30.36400
C           3.69200         2.54000        33.59800
O           4.34800         1.40600        34.18400
H           4.07900         1.19100        35.12300
C           3.96900         6.72900        32.69700
O           4.32000         7.58600        31.60100
H           4.05000         8.52200        31.82500
C           4.31800         5.25800        32.85900
O           3.75900         4.90000        34.13200
C           4.15600         3.59800        34.58500
O           3.29400         3.63700        35.73100
C           4.15700         3.78600        36.86800
C           3.99900         5.17700        37.46100
O           3.99200         6.21000        36.46500
H           3.95500         5.78900        35.55900
C           4.72000         5.48500        38.76300
O           4.67500         6.89800        39.00900
H           4.91300         7.06800        39.96500
C           3.99300         1.40600        37.84000
O           3.61600         0.76500        36.61200
H           3.72800        -0.21900        36.74600
C           3.70800         2.88900        38.00900
O           4.28700         3.18000        39.29000
C           4.10100         4.52200        39.76300
O           4.73900         4.58500        41.04700
C           8.13200        16.31900         2.90500
C           7.61900        17.67600         3.36000
O           8.12700        18.76600         2.57800
H           8.04400        18.51100         1.61400
C           7.92100        18.14300         4.77400
O           7.06600        19.15500         5.32500
H           7.35900        19.41000         6.24600
C           8.22000        13.84700         3.67100
O           7.70300        13.24300         2.47700
H           7.47600        12.29900         2.71500
C           7.86500        15.29000         3.99100
O           8.31500        15.75600         5.27200
C           7.74600        16.98600         5.74400
O           8.55900        17.09500         6.92200
C           7.89300        16.74100         8.14300
C           8.42700        15.42100         8.67300
O           8.01600        14.43200         7.71900
H           8.03000        14.89400         6.83200
C           7.98300        15.04900        10.07900
O           8.64600        13.89500        10.61500
H           8.16700        13.78800        11.48600
C           7.50400        19.15500         8.75000
O           8.06600        19.87600         7.64400
H           7.95700        20.82300         7.94600
C           8.07100        17.81900         9.20000
O           7.38700        17.35400        10.37300
C           8.07200        16.25800        10.99600
O           7.33400        16.07200        12.21300
C           7.99400        16.13400        13.48600
C           7.53500        17.47700        14.03100
O           7.74900        18.53400        13.08400
H           7.53800        18.22300        12.15700
C           8.09400        17.71100        15.42400
O           7.50300        18.91300        15.93900
H           7.85900        19.11900        16.85000
C           8.26800        13.72400        14.04000
O           7.66100        13.04100        12.93400
H           7.66500        12.05600        13.11000
C           7.64800        15.03900        14.48100
O           8.16900        15.29000        15.79400
C           7.74900        16.54900        16.34100
O           8.54300        16.76100        17.51700
C           8.01800        16.42200        18.80900
C           8.62700        15.09800        19.24000
O           8.44000        14.02300        18.30800
H           8.42000        14.38500        17.37600
C           8.19400        14.71900        20.64700
O           8.79200        13.54200        21.20800
H           8.39100        13.35700        22.10500
C           8.13400        18.84800        19.58200
O           8.41400        19.52100        18.34600
H           8.30300        20.50900        18.45600
C           8.51200        17.40200        19.86100
O           7.88800        17.13400        21.12500
C           8.40200        15.88200        21.60400
O           7.73400        15.55500        22.83100
C           8.33000        16.08000        24.02700
C           7.63400        17.31300        24.57900
O           7.36400        18.34600        23.62000
H           7.37900        17.91100        22.72000
C           8.23400        17.73900        25.90900
O           7.49400        18.87200        26.38600
H           7.98700        19.12100        27.22000
C           8.69500        13.63800        24.73700
O           8.33300        12.73900        23.67900
H           8.27900        11.77200        23.93000
C           8.20200        15.02600        25.11400
O           8.91900        15.42800        26.29000
C           8.18200        16.53300        26.83200
O           8.68300        16.85600        28.13700
C           7.91700        16.55300        29.31300
C           8.48600        15.23900        29.82100
O           8.53300        14.14300        28.89700
H           8.97500        14.44600        28.05200
C           7.84400        14.82900        31.13700
O           8.29900        13.55700        31.62100
H           7.89400        13.54700        32.53500
C           7.71900        18.96700        30.04000
O           8.37800        19.48700        28.87600
H           8.33800        20.48600        28.84200
C           8.16500        17.56400        30.42000
O           7.51300        17.22700        31.65400
C           7.98700        15.96200        32.14000
O           7.24000        15.73900        33.34500
C           7.83300        16.21100        34.56300
C           7.49600        17.61000        35.05200
O           7.83500        18.54000        34.01200
H           7.71200        18.01200        33.17200
C           8.10100        18.04600        36.37600
O           7.50700        19.27800        36.81000
H           8.00600        19.42000        37.66500
C           8.10600        13.85000        35.41600
O           7.68700        13.12200        34.25300
H           7.78000        12.15400        34.48700
C           7.59300        15.25000        35.71600
O           8.30400        15.61000        36.90900
C           8.02900        16.92800        37.40400
O           8.95600        17.02700        38.49400
C           8.36400        16.67200        39.75200
C           8.66000        15.28400        40.29600
O           8.45900        14.28400        39.28800
H           8.61500        14.63300        38.36400
C           7.86700        14.97600        -0.50500
O           8.22300        13.67700        -0.00900
H           7.87600        13.61600         0.92700
C           8.01400        19.09100        40.58000
O           8.48000        19.79400        39.41900
H           8.27600        20.76700        39.52600
C           8.66300        17.73500        -1.27600
O           8.06200        17.33000        -0.03700
C           8.33300        16.02400         0.49200
O           7.53100        15.89000         1.67500
C           3.55500        12.42300         0.32100
C           3.84700        11.03300        42.92600
O           3.60200        10.03900        41.92000
H           3.89100        10.41100        41.03800
C           3.22800        10.64400         2.19700
O           3.75600         9.39900         2.67600
H           3.61400         9.30700         3.66200
C           3.53700        14.87500         1.19800
O           4.08000        15.62400         0.10100
H           3.88500        16.59800         0.22000
C           3.91000        13.41700         1.41500
O           3.31600        13.10700         2.68400
C           3.65900        11.78000         3.11100
O           3.09600        11.56400         4.41200
C           3.81900        12.06800         5.54500
C           3.38600        13.43000         6.06300
O           3.79300        14.34500         5.03500
H           3.58500        13.84200         4.19700
C           3.89200        13.79700         7.44800
O           3.48000        15.07100         7.96200
H           3.69200        15.36800         8.89300
C           4.19300         9.73300         6.28900
O           3.44500         8.96700         5.33400
H           3.79800         8.03200         5.34300
C           3.61100        11.08100         6.68200
O           4.15400        11.52600         7.93300
C           3.43200        12.68400         8.37600
O           4.12700        12.94800         9.60300
C           3.50500        12.53700        10.82900
C           3.91800        11.13200        11.23800
O           3.45400        10.25100        10.20400
H           3.75000        10.55900         9.30000
C           3.47000        10.79500        12.65000
O           4.04500         9.57600        13.14400
H           3.89900         9.47000        14.12700
C           3.43600        14.89200        11.69600
O           3.80200        15.65400        10.53600
H           4.00800        16.61500        10.72100
C           3.93700        13.47800        11.94100
O           3.33800        13.13400        13.19900
C           3.83800        11.87000        13.66000
O           3.14600        11.75700        14.91200
C           3.89700        12.12400        16.07900
C           3.58800        13.53500        16.55100
O           3.65400        14.55200        15.54100
H           3.64400        14.11800        14.64000
C           4.38600        13.84200        17.80800
O           4.15400        15.18400        18.25800
H           4.51100        15.28800        19.18700
C           4.11800         9.75500        16.81400
O           3.46400         9.04800        15.75000
H           3.50300         8.08100        16.00000
C           3.61200        11.13600        17.19900
O           4.43000        11.46900        18.33000
C           4.11600        12.76900        18.85100
O           4.87600        12.77700        20.06900
C           4.13200        12.61800        21.28600
C           4.53400        11.22000        21.72600
O           4.23200        10.17200        20.79300
H           4.45000        10.45700        19.86000
C           4.02300        10.84800        23.10800
O           4.32200         9.52000        23.56000
H           4.12300         9.29000        24.51300
C           4.07100        15.02100        22.17500
O           4.63400        15.71100        21.04900
H           4.32900        16.63800        21.26800
C           4.53600        13.58900        22.38400
O           3.88400        13.23400        23.61200
C           4.36800        11.96600        24.07900
O           3.55400        11.81700        25.25200
C           4.17200        12.03700        26.52900
C           3.95100        13.45400        27.03300
O           4.35300        14.39600        26.02900
H           3.87800        13.98300        25.25200
C           4.62300        13.73400        28.36700
O           4.63200        15.05900        28.91700
H           4.82100        15.20800        29.88800
C           4.15800         9.60600        27.45900
O           4.02000         9.03300        26.15100
H           4.06000         8.03600        26.21600
C           3.71700        11.05400        27.59600
O           4.26900        11.42300        28.86800
C           4.01100        12.74900        29.35100
O           4.63300        12.78600        30.64400
C           3.76000        12.59400        31.76700
C           3.99300        11.17200        32.24900
O           3.36100        10.26700        31.33100
H           3.80100        10.39900        30.44300
C           3.42900        10.87300        33.62900
O           4.04200         9.66000        34.08700
H           3.87200         9.48900        35.05800
C           3.72300        14.95400        32.63300
O           4.31400        15.71300        31.56800
H           4.03300        16.65900        31.73200
C           4.09300        13.51100        32.93300
O           3.50800        13.22200        34.21100
C           3.88200        11.90700        34.64700
O           3.09600        11.96100        35.84600
C           3.74700        12.10600        37.11600
C           3.51200        13.52200        37.61800
O           3.98300        14.47200        36.65200
H           3.81900        14.15200        35.71900
C           4.14800        13.66100        38.99200
O           3.79700        14.94600        39.52600
H           4.11800        15.03800        40.46900
C           3.70900         9.59100        37.83700
O           3.58700         8.81300        36.63800
H           3.82900         7.84500        36.70600
C           3.36500        11.04200        38.13200
O           3.91900        11.28600        39.43200
C           3.60300        12.59500        39.92800
O           4.31600        12.54800        41.17200
C           7.76900        24.40400         2.96500
C           7.48700        25.82600         3.42400
O           7.87200        26.87100         2.52000
H           7.45200        26.59700         1.65500
C           7.96500        26.16700         4.82600
O           7.53000        27.47100         5.23700
H           7.65400        27.60500         6.22100
C           7.86200        22.16000         3.80800
O           7.41600        21.35500         2.70700
H           7.73800        20.41100         2.78900
C           7.28900        23.53300         4.11500
O           7.68500        23.79300         5.47000
C           7.44100        25.15900         5.83600
O           8.18100        25.33400         7.05200
C           7.65500        24.90900         8.31800
C           8.20900        23.54700         8.70300
O           8.02500        22.49900         7.74100
H           8.14100        22.94800         6.85500
C           7.73500        23.02200        10.04800
O           8.20100        21.73900        10.48900
H           7.65500        21.42200        11.26500
C           7.39800        27.17900         9.26700
O           7.92900        27.93500         8.16900
H           7.74500        28.91700         8.21200
C           7.98000        25.79600         9.50900
O           7.31800        25.24900        10.65900
C           8.02100        24.07900        11.10300
O           7.24400        23.68200        12.24300
C           7.71900        24.10300        13.53000
C           7.17400        25.45700        13.95700
O           7.22900        26.52200        12.99700
H           6.86200        26.12500        12.15600
C           7.75300        25.90100        15.29100
O           7.22600        27.06800        15.94000
H           7.64800        27.21600        16.83400
C           7.88900        21.70300        14.28100
O           7.33400        20.98300        13.17000
H           7.53300        20.02000        13.34900
C           7.37700        23.09500        14.61500
O           7.96700        23.45900        15.87100
C           7.60400        24.77800        16.30400
O           8.40000        25.02900        17.47100
C           7.89300        24.51000        18.70900
C           8.45000        23.21800        19.28400
O           8.48800        22.17400        18.29900
H           8.48000        22.58900        17.38900
C           7.71900        22.86000        20.56800
O           8.31900        21.77300        21.28900
H           7.76200        21.49600        22.07200
C           7.55700        26.96100        19.42400
O           8.10900        27.57600        18.25100
H           7.97900        28.56700        18.29700
C           8.12600        25.59000        19.75200
O           7.43900        25.30300        20.97900
C           7.88400        24.04500        21.50500
O           7.15700        23.87100        22.73000
C           7.71000        24.20100        24.01300
C           7.00800        25.44400        24.53300
O           7.09800        26.49100        23.55600
H           6.92500        26.06900        22.66500
C           7.55900        25.92900        25.86400
O           6.65900        26.94200        26.33800
H           6.85000        27.29400        27.25400
C           7.70700        21.66500        24.79500
O           7.24600        20.98700        23.61700
H           7.35800        20.01200        23.80800
C           7.43700        23.13700        25.06300
O           8.09300        23.55800        26.26800
C           7.52700        24.75300        26.82600
O           8.38600        25.07000        27.93100
C           7.84200        24.74400        29.21800
C           8.42400        23.42500        29.70000
O           8.44800        22.42000        28.67600
H           8.29100        22.83100        27.77800
C           7.97400        23.00000        31.08800
O           8.45800        21.74500        31.58900
H           8.07700        21.59200        32.50100
C           7.31000        27.11900        29.97200
O           7.41600        27.78700        28.70600
H           7.35600        28.76700        28.89700
C           8.05100        25.82500        30.26600
O           7.69000        25.40100        31.58800
C           8.26300        24.16000        32.02700
O           7.50800        24.04200        33.24100
C           8.11400        24.37200        34.50000
C           7.49100        25.65400        35.02900
O           7.78800        26.72200        34.11700
H           7.60800        26.40200        33.18700
C           7.99300        26.12000        36.38600
O           7.36700        27.32300        36.85500
H           7.73300        27.64600        37.72700
C           8.25400        21.98300        35.38100
O           7.72600        21.27300        34.25200
H           7.54200        20.29800        34.37600
C           7.79000        23.40900        35.63000
O           8.40800        23.77900        36.87100
C           7.68200        24.94200        37.29500
O           8.32600        25.19000        38.55300
C           7.68800        24.85400        39.79400
C           8.36300        23.62100        40.37400
O           8.28700        22.55900        39.41100
H           8.25700        23.03900        38.53500
C           7.89100        23.23300        -0.29800
O           8.50100        22.10300         0.34200
H           7.97600        21.74900         1.11600
C           7.68300        27.36600        40.49300
O           8.11300        28.01400        39.28700
H           7.91400        28.98700        39.40200
C           8.02100        25.92000        -1.24800
O           7.42900        25.64000         0.02900
C           7.96400        24.44500         0.61600
O           7.09600        24.15700         1.72200
C           3.62100        20.52600         0.46300
C           3.98200        19.15500         1.01000
O           3.95200        18.11900         0.01800
H           4.34900        18.49500        -0.81900
C           3.46800        18.78400         2.39100
O           4.40600        17.78100         2.80600
H           4.22400        17.54500         3.76000
C           3.40200        23.00300         1.14100
O           4.15000        23.72500         0.15200
H           3.91300        24.69300         0.07300
C           3.85300        21.60000         1.51400
O           3.18600        21.28300         2.74400
C           3.65800        20.02500         3.24800
O           2.98600        19.97300         4.51500
C           3.67900        20.23200         5.74500