# freq=raman b3lyp/6-31+g(2d,p) geom=connectivity

473 9756/9756.com

0 1
O           7.64300         7.45900        12.29800
C           8.07100         7.88800        13.59800
C           7.40200         9.18400        14.02600
O           7.40000        10.18100        12.99400
H           7.32200         9.69000        12.12600
C           7.99800         9.59900        15.36100
O           7.49600        10.80800        15.94900
H           7.85100        10.88800        16.88100
C           8.46600         5.55200        14.34400
O           8.10100         4.71100        13.24000
H           8.00800         3.74600        13.48500
C           7.83300         6.88400        14.71400
O           8.42200         7.29700        15.95600
C           7.92700         8.54800        16.45600
O           8.71800         8.80400        17.62600
C           8.06400         8.56200        18.88000
C           8.51600         7.19600        19.36900
O           8.18200         6.07900        18.53200
H           8.52900         6.34400        17.63200
C           8.17900         6.76200        20.78600
O           9.12900         5.82400        21.31200
H           8.65800         5.56000        22.15400
C           7.94800        11.00500        19.58500
O           8.45400        11.61500        18.38900
H           8.30700        12.60300        18.42600
C           8.45300         9.60900        19.91000
O           7.84900         9.20600        21.14800
C           8.44600         7.99500        21.63300
O           7.85500         7.65500        22.89500

