# freq=raman b3lyp/6-31+g(d,p) geom=connectivity

550 8000.com

0 1
 O                  9.67500000    7.40200000   22.07100000
 C                 10.48300000    7.25900000   23.24800000
 C                 10.85600000    8.61200000   23.83300000
 O                 11.60000000    9.31300000   22.82500000
 H                 11.34600000    8.95300000   21.92800000
 C                 11.66400000    8.40500000   25.10400000
 O                 11.72800000    9.71400000   25.68800000
 H                 11.76700000   10.48500000   25.05100000
 C                  8.76500000    5.49300000   24.07100000
 O                  9.06800000    4.33000000   23.28600000
 H                  9.44600000    4.63300000   22.41200000
 C                  9.76700000    6.58500000   24.40700000
 O                 10.74700000    6.27200000   25.40800000
 C                 11.05700000    7.46900000   26.13600000
 O                 11.92600000    7.19500000   27.24500000
 C                 11.10100000    7.18000000   28.41800000
 C                 10.51400000    5.87500000   28.93100000
 O                  9.71100000    5.16400000   27.97700000
 H                  8.84400000    5.60700000   27.75000000
 C                  9.63200000    6.22000000   30.12000000
 O                  8.83000000    5.17700000   30.69300000
 H                  8.69400000    4.63000000   29.86700000
 C                 12.93800000    8.80700000   29.05700000
 O                 12.49100000   10.03500000   28.46400000
 H                 11.72400000    9.95800000   27.82700000
 C                 11.84900000    7.86800000   29.54800000
 O                 10.84700000    8.28000000   30.48900000
 C                 10.39700000    7.07200000   31.12000000
 O                  9.68900000    7.29000000   32.34900000
 H                 10.24272671    7.49536732   21.30251517
 H                  7.94840163    5.97933618   23.57952852
 H                  8.39346374    5.13169614   25.00711983
 H                  9.17228329    7.35991646   24.84371102
 H                 11.37213879    6.71368679   23.00932509
 H                  9.96515715    9.15845721   24.06252894
 H                 12.65033130    8.07421392   24.85373787
 H                 10.14858369    7.89830192   26.50393976
 H                 10.31838462    7.41660582   33.06275483
 H                 11.27701971    6.51968125   31.37575244
 H                  8.90772261    6.89294114   29.71076599
 H                 11.31000917    5.23968868   29.25909896
 H                 10.26269968    7.80486870   28.19064194
 H                 12.38159998    7.08577351   30.04735856
 H                 13.52651598    8.28335364   28.33288438
 H                 13.56733187    9.04908091   29.88780577

 1 2 1.0 30 1.0
 2 3 1.0 12 1.0 34 1.0
 3 4 1.0 6 1.0 35 1.0
 4 5 1.0
 5
 6 7 1.0 14 1.0 36 1.0
 7 8 1.0
 8
 9 10 1.0 12 1.0 31 1.0 32 1.0
 10 11 1.0
 11
 12 13 1.0 33 1.0
 13 14 1.0
 14 15 1.0 37 1.0
 15 16 1.0
 16 17 1.0 26 1.0 42 1.0
 17 18 1.0 20 1.0 41 1.0
 18 19 1.0
 19
 20 21 1.0 28 1.0 40 1.0
 21 22 1.0
 22
 23 24 1.0 26 1.0 44 1.0 45 1.0
 24 25 1.0
 25
 26 27 1.0 43 1.0
 27 28 1.0
 28 29 1.0 39 1.0
 29 38 1.0
 30
 31
 32
 33
 34
 35
 36
 37
 38
 39
 40
 41
 42
 43
 44
 45

