# freq=raman b3lyp/6-31+g(2d,p) geom=connectivity

290 9606/9606.com

0 1
C           8.03600         7.83300         3.06100
C           7.58200         9.16000         3.64600
O           7.46300        10.26500         2.73900
H           7.13600         9.82400         1.90400
C           8.24400         9.55900         4.95500
O           7.83200        10.80400         5.53800
H           8.10200        10.89400         6.49600
C           8.24800         5.35500         3.88400
O           7.84500         4.61600         2.72100
H           8.00900         3.63300         2.81400
C           7.69500         6.75700         4.07900
O           8.36500         7.17300         5.27900
C           7.92100         8.39800         5.88100
O           8.66200         8.71900         7.06700
C           8.13600         8.29100         8.33200
C           8.65300         6.93200         8.77500
O           8.65500         5.83200         7.85400
H           8.64800         6.24500         6.94300
C           8.01100         6.51200        10.08700
O           8.31600         5.19600        10.57100
H           7.88600         5.11000        11.47000
C           7.91500        10.70900         9.12800
O           8.50100        11.35200         7.98700
H           8.34800        12.33500         8.08800
C           8.43600         9.31100         9.41800
O           7.68400         8.84400        10.54800
C           8.29200         7.64800        11.05700
O           7.46400         7.33000        12.18400
C           7.98500         7.70300        13.46800
C           7.34500         8.99500        13.95000
O           7.53800        10.02800        12.97200
H           7.49500         9.65400        12.04600
C           7.90900         9.54400        15.25100
O           7.45900        10.77100        15.84400
H           7.94500        10.88300        16.71100
C           8.01000         5.29400        14.29300
O           7.48800         4.62600        13.13500
H           7.60800         3.64000        13.02300
C           7.74900         6.75300        14.63100
O           8.27400         7.20700        15.88700
C           7.75000         8.47200        16.31700
O           8.68200         8.77100        17.36700
C           8.30100         8.45700        18.71500
C           8.84600         7.11600        19.17800
O           8.50200         6.02200        18.31500
H           8.39700         6.39400        17.39300
C           8.55600         6.79400        20.63500
O           9.50700         5.84700        21.14500
H           9.05400         5.62600        22.00800
C           8.26000        10.94700        19.43300
O           8.41200        11.61000        18.16900
H           8.32700        12.58100        18.39000
C           8.74300         9.53000        19.69600
O           8.15400         9.25100        20.97500
C           8.72600         8.04000        21.49000
O           8.08100         7.72100        22.73200
C           8.69100         8.09700        23.97600
C           8.12700         9.43400        24.42600
O           8.74700        10.37500        23.53700
H           8.48400        10.15200        22.59800
C           8.40200         9.73700        25.89000
O           7.48600        10.69900        26.43400
H           7.64600        10.77300        27.41800
C           8.78500         5.59900        24.73700
O           8.50500         4.95500        23.48600
H           8.53300         3.95800        23.55700
C           8.33800         7.02800        24.99700
O           8.81300         7.33200        26.31700
C           8.28000         8.55700        26.84000
O           8.88500         8.83200        28.11200
C           8.12500         8.46900        29.27400
C           8.60900         7.11200        29.75800
O           8.19400         6.01200        28.93600
H           8.42200         6.17400        27.97500
C           8.15600         6.64200        31.13100
O           9.13400         5.68700        31.56600
H           8.90600         5.49000        32.52000
C           7.66800        10.82500        30.20800
O           8.12000        11.54600        29.05300
H           7.93500        12.52200        29.16500
C           8.19500         9.42100        30.45700
O           7.45900         8.91600        31.58000
C           8.19200         7.80300        32.11100
O           7.58700         7.51700        33.38000
C           8.24700         7.90000        34.59500
C           7.54700         9.13000        35.14900
O           7.63900        10.14400        34.13800
H           7.44300         9.67900        33.27500
C           8.05500         9.61700        36.49700
O           7.43200        10.84600        36.90000
H           7.86000        11.18100        37.74000
C           8.54700         5.54600        35.44100
O           8.19500         4.82800        34.24900
H           8.28800         3.86100        34.48700
C           7.91600         6.90500        35.69500
O           8.47100         7.26800        36.96800
C           7.85200         8.46300        37.46500
O           8.60600         8.83200        38.62800
C           7.98800         8.47800        39.87400
C           8.60900         7.21800        40.45400
O           8.78600         6.19700        39.46100
H           8.92900         6.65600        38.58400
C           8.13400         6.73400        -0.24700
O           8.87900         5.62900         0.28400
H           8.39100         5.44500         1.13700
C           7.49300        10.82800        40.61600
O           8.10900        11.58300        39.56300
H           8.02400        12.57200        39.68500
C           8.05100         9.47300        -1.04300
O           7.33900         9.03200         0.12200
C           8.07800         7.93600         0.68100
O           7.32200         7.56800         1.84500
C           3.78400         4.54100         0.11500
C           4.17700         3.14500        42.63200
O           3.81400         2.13200        41.68300
H           4.03000         2.47200        40.76800
C           3.67700         2.85000         1.97500
O           4.15600         1.59400         2.47900
H           3.77300         1.48700         3.39600
C           3.40200         7.03200         1.01100
O           3.39500         7.60400        -0.30500
H           3.66400         8.56700        -0.28000
C           4.05300         5.66200         1.10500
O           3.61700         5.23700         2.40500
C           4.15900         3.98800         2.85900
O           3.45400         3.80600         4.09600
C           4.12600         4.09900         5.33000
C           3.75500         5.46000         5.89600
O           4.10100         6.45300         4.92000
H           3.69900         6.12100         4.06600
C           4.34200         5.82100         7.25000
O           3.71500         7.00000         7.77600
H           3.90900         7.08600         8.75300
C           4.29000         1.63400         6.14400
O           3.79200         0.82700         5.06800
H           4.02900        -0.09400         5.37800
C           3.87000         3.06900         6.41800
O           4.57400         3.44300         7.61100
C           4.03500         4.65000         8.16900
O           4.67600         4.84500         9.43800
C           3.98500         4.38200        10.60700
C           4.58700         3.08600        11.12600
O           4.57400         2.05400        10.12900
H           4.85800         2.46600         9.26300
C           3.90900         2.71000        12.43300
O           4.45400         1.44400        12.83000
H           4.24900         1.26000        13.79200
C           3.45400         6.74500        11.40000
O           3.84900         7.50600        10.25000
H           3.55600         8.45700        10.35600
C           4.11200         5.41200        11.71800
O           3.55400         4.96500        12.96200
C           4.27000         3.80900        13.42000
O           3.58700         3.54100        14.65300
C           4.28500         3.92500        15.84600
C           3.82600         5.27600        16.36900
O           3.72100         6.37300        15.45000
H           3.43400         6.02000        14.55900
C           4.60200         5.67500        17.61400
O           4.59400         7.03400        18.07600
H           4.90600         7.13200        19.02100
C           4.34600         1.48000        16.59900
O           3.85200         0.71200        15.49200
H           3.91000        -0.26900        15.67600
C           3.96800         2.91300        16.93500
O           4.51500         3.27300        18.21200
C           4.19600         4.61100        18.62000
O           4.99100         4.74700        19.80800
C           4.44600         4.37000        21.08100
C           4.74800         2.97000        21.58900
O           4.31400         2.00600        20.61900
H           4.29500         2.46000        19.72800
C           4.10100         2.58500        22.90900
O           4.76800         1.38600        23.33000
H           4.35800         0.98600        24.15000
C           4.56000         6.73700        21.91800
O           5.16400         7.37300        20.78200
H           4.75800         8.27600        20.64200
C           4.85000         5.27800        22.23100
O           4.14100         5.01600        23.45100
C           4.40900         3.68400        23.91300
O           3.62300         3.38700        25.07600
C           4.18900         3.75700        26.34200
C           3.63800         5.07200        26.86700
O           3.67500         6.16600        25.93900
H           3.67700         5.73400        25.03600
C           4.24800         5.48800        28.19600
O           3.65300         6.68800        28.71200
H           3.95700         6.80600        29.65700
C           4.70100         1.39200        27.11300
O           4.13800         0.72700        25.97300
H           4.05400        -0.26800        26.01600
C           3.97000         2.69300        27.40500
O           4.52500         3.12800        28.65500
C           4.05400         4.36700        29.20400
O           4.81200         4.49000        30.41600
C           4.04400         4.20900        31.59500
C           4.43800         2.85200        32.15600
O           4.17400         1.84200        31.17200
H           4.15600         2.41500        30.35300
C           3.89900         2.57400        33.55000
O           4.18600         1.26500        34.06200
H           4.03000         1.20100        35.04700
C           3.88800         6.67600        32.37300
O           4.26100         7.46300        31.23300
H           3.98200         8.40800        31.40200
C           4.30500         5.24600        32.67500
O           3.68700         4.92200        33.92900
C           4.27900         3.72800        34.46300
O           3.61100         3.52300        35.71700
C           4.14000         3.92100        36.99000
C           3.79900         5.36300        37.33000
O           4.25000         6.36500        36.40600
H           4.07000         6.01400        35.48800
C           4.37200         5.66900        38.70400
O           4.11000         6.96400        39.26400
H           3.99000         6.95400        40.25700
C           4.35200         1.52400        37.87200
O           4.03100         0.72400        36.72500
H           4.32400        -0.20300        36.96000
C           3.80400         2.92500        38.08800
O           4.38900         3.34600        39.32900
C           3.86900         4.63300        39.69500
O           4.49900         4.83800        40.96800
C           8.05400        15.99100         3.13500
C           7.56700        17.38300         3.50500
O           7.97700        18.45100         2.63900
H           7.73800        18.01600         1.77000
C           8.01900        17.66600         4.92800
O           7.48300        18.85500         5.52700
H           7.97400        19.05400         6.37500
C           8.11700        13.46900         3.93000
O           7.86500        12.81100         2.67900
H           7.71400        11.84600         2.89100
C           7.56400        14.88000         4.04900
O           8.07700        15.21600         5.34700
C           7.70100        16.50400         5.85500
O           8.56900        16.70500         6.98000
C           7.92800        16.45000         8.23900
C           8.45600        15.12400         8.76000
O           8.07500        14.07500         7.85700
H           8.16200        14.56900         6.99200
C           7.85700        14.74500        10.10400
O           8.33800        13.52900        10.69600
H           7.90900        13.39000        11.58900
C           7.70000        18.84300         9.11300
O           8.24200        19.51600         7.96700
H           8.08800        20.48800         8.14500
C           8.20500        17.43200         9.36600
O           7.64000        17.10800        10.64500
C           8.11400        15.84100        11.12500
O           7.47800        15.62700        12.39300
C           8.22800        15.99700        13.55900
C           7.77400        17.36500        14.04300
O           8.21700        18.36300        13.11200
H           7.94200        18.04600        12.20400
C           8.47800        17.77800        15.32500
O           7.86900        18.99500        15.78100
H           8.21100        19.20300        16.69800
C           8.61200        13.66800        14.30000
O           7.85300        12.94300        13.32200
H           8.07000        11.97200        13.42600
C           7.98500        14.99900        14.68000
O           8.67600        15.45100        15.85300
C           8.16900        16.69900        16.35000
O           8.91900        16.89500        17.55700
C           8.27000        16.56300        18.79300
C           8.66400        15.20000        19.33800
O           8.56000        14.28000        18.24200
H           8.81400        14.79100        17.42100
C           8.06200        14.78300        20.67000
O           8.48800        13.46100        21.02800
H           8.19900        13.26500        21.96500
C           8.21200        19.02800        19.54400
O           8.75300        19.62000        18.35400
H           8.67600        20.59800        18.54700
C           8.57900        17.59000        19.87100
O           7.87200        17.15100        21.04000
C           8.35500        15.93200        21.62200
O           7.55600        15.77900        22.80400
C           8.14400        16.09000        24.07600
C           7.46400        17.39500        24.45700
O           7.60400        18.48300        23.53200
H           7.24100        18.10500        22.68100
C           7.87100        17.78200        25.87000
O           7.18800        18.94700        26.35700
H           7.46900        19.03000        27.31300
C           8.26200        13.61900        24.92800
O           8.16900        12.94300        23.66500
H           8.52100        12.01900        23.81300
C           7.82500        15.05900        25.14500
O           8.35200        15.38900        26.43900
C           7.69600        16.60700        26.81800
O           8.34000        17.02600        28.03000
C           7.74200        16.68400        29.28900
C           8.33700        15.37700        29.78800
O           7.84800        14.29100        28.98800
H           8.03900        14.51800        28.03300
C           8.01600        15.02400        31.23100
O           8.86600        14.03200        31.82700
H           8.52400        13.68900        32.70200
C           7.36700        19.07000        29.92700
O           7.85000        19.69800        28.73100
H           8.00400        20.66500        28.92900
C           7.97700        17.74400        30.35300
O           7.37400        17.41900        31.61400
C           8.05900        16.26100        32.11300
O           7.45100        15.86400        33.35100
C           8.09100        16.00100        34.62800
C           7.47700        17.32100        35.06500
O           7.77800        18.39600        34.16400
H           7.58800        18.10200        33.22700
C           8.02700        17.78600        36.40400
O           7.52900        19.04300        36.88400
H           7.98500        19.26900        37.74500
C           8.20400        13.58700        35.27200
O           7.59000        12.82400        34.22200
H           7.63000        11.84000        34.39800
C           7.72300        14.96900        35.68300
O           8.20200        15.39600        36.96700
C           7.70500        16.67400        37.38900
O           8.43500        16.70100        38.62400
C           7.88300        16.41000        39.91700
C           8.35300        15.05000        40.40600
O           8.18900        13.98700        39.45700
H           8.33200        14.39600        38.55500
C           7.79300        14.68900        -0.28900
O           8.29000        13.46000         0.25900
H           8.12900        13.35500         1.24100
C           7.62600        18.85700        40.60500
O           8.12500        19.63500        39.50900
H           8.08700        20.62300        39.65800
C           8.25500        17.50500        -1.16200
O           7.69500        17.08000         0.08900
C           8.22200        15.84600         0.59800
O           7.54500        15.62500         1.84400
C           3.76100        12.67700         0.26500
C           4.12600        11.32700        42.92200
O           3.84600        10.26200        42.00200
H           3.77000        10.66500        41.09000
C           3.48400        11.10100         2.22000
O           3.63500         9.78100         2.76400
H           3.23700         9.78700         3.68200
C           3.50900        15.10400         0.89500
O           3.71600        15.71900        -0.38500
H           3.65200        16.71400        -0.31000
C           4.10700        13.75900         1.27500
O           3.58000        13.55300         2.59400
C           3.84100        12.25300         3.14400
O           3.09700        12.18100         4.36900
C           3.85500        12.17500         5.58700
C           3.72600        13.58500         6.14200
O           4.22600        14.55900         5.21400
H           3.90100        14.31400         4.30100
C           4.28500        13.78100         7.54100
O           4.00500        15.12100         7.97000
H           4.39400        15.38700         8.85200
C           3.51600         9.79500         6.35100
O           3.29600         9.07400         5.13000
H           3.58500         8.12800         5.27900
C           3.15900        11.25500         6.57700
O           3.63500        11.47600         7.91300
C           3.55200        12.80500         8.44800
O           4.40100        12.63000         9.59100
C           3.73600        12.52800        10.85900
C           3.99400        11.11600        11.36000
O           3.34100        10.31900        10.36100
H           3.68200        10.68000         9.49400
C           3.49400        10.84500        12.77000
O           3.76000         9.51600        13.24000
H           3.65900         9.44700        14.23300
C           3.69400        14.93800        11.54000
O           4.04300        15.80900        10.45400
H           4.15700        16.71600        10.85900
C           4.27100        13.56300        11.83500
O           3.91400        13.21400        13.18000
C           4.15300        11.88400        13.66400
O           3.40000        12.05200        14.87400
C           4.06900        12.11300        16.14200
C           3.55800        13.42500        16.71700
O           3.95300        14.44900        15.79300
H           3.88500        14.13800        14.84500
C           4.23600        13.69800        18.04900
O           3.70800        14.94700        18.51900
H           4.16200        15.18800        19.37600
C           3.98000         9.63400        16.88600
O           3.35400         8.93300        15.80200
H           3.68200         7.98800        15.78900
C           3.59500        11.08000        17.15100
O           4.26700        11.24700        18.40800
C           3.89500        12.52200        18.95000
O           4.59900        12.61100        20.19700
C           3.86500        12.35400        21.40400
C           4.24800        10.98700        21.95000
O           3.97900         9.97200        20.97200
H           4.27800        10.33900        20.09100
C           3.65300        10.70700        23.32000
O           4.19800         9.48900        23.84700
H           3.86100         9.34400        24.77700
C           3.83600        14.81900        22.13100
O           4.54500        15.50400        21.08800
H           4.28500        16.46500        21.00000
C           4.25500        13.39200        22.44300
O           3.58900        13.10000        23.68000
C           4.00600        11.85300        24.25400
O           3.27700        11.88700        25.49000
C           4.11900        12.14000        26.62400
C           3.70000        13.50300        27.15000
O           3.93400        14.48200        26.12700
H           3.57000        14.23100        25.23000
C           4.37400        13.81200        28.47700
O           4.02700        15.11100        28.97900
H           4.32100        15.19800        29.93100
C           4.12700         9.68300        27.47200
O           3.58400         8.98200        26.34400
H           3.46600         8.00200        26.50200
C           3.69000        11.12500        27.67100
O           4.37400        11.40800        28.90100
C           3.94300        12.68300        29.39900
O           4.51300        12.83200        30.70700
C           3.76100        12.33200        31.82200
C           4.11900        10.97000        32.39200
O           3.75600        10.18500        31.24600
H           4.29700        10.54900        30.48800
C           3.51300        10.65000        33.74900
O           4.13100         9.46300        34.26800
H           3.87600         9.42000        35.23400
C           3.59800        14.75100        32.55200
O           4.18900        15.61900        31.57400
H           3.95000        16.58800        31.64200
C           4.06600        13.35000        32.90900
O           3.37300        13.00200        34.11700
C           3.85200        11.78300        34.70400
O           3.07500        11.70600        35.90800
C           3.85900        12.12800        37.03300
C           3.53800        13.53800        37.50100
O           3.89900        14.48400        36.48300
H           3.53300        14.08500        35.64300
C           4.08000        13.85400        38.88500
O           3.52400        15.12400        39.25900
H           3.82100        15.36400        40.18300
C           4.08000         9.79400        37.98400
O           3.57300         9.00400        36.89900
H           3.92600         8.07500        37.01200
C           3.47700        11.17800        38.15600
O           3.88900        11.49300        39.49400
C           3.62700        12.83800        39.92100
O           4.45400        12.91400        41.09100
C           7.74700        24.14600         2.88400
C           7.32700        25.49800         3.43700
O           7.72000        26.51900         2.50900
H           7.45500        26.16400         1.61300
C           7.90600        25.81300         4.80700
O           7.10600        26.82000         5.44400
H           7.58300        27.16500         6.25200
C           8.07000        21.70900         3.62200
O           7.41800        21.09300         2.50200
H           7.53300        20.10300         2.58700
C           7.66600        23.12300         4.00600
O           8.24300        23.48400         5.26900
C           7.73600        24.70300         5.83200
O           8.44000        24.89700         7.06700
C           7.79500        24.52600         8.29400
C           8.34400        23.16900         8.70200
O           7.87500        22.09900         7.86800
H           8.01300        22.44300         6.94000
C           8.01200        22.82100        10.14400
O           8.65400        21.64400        10.65700
H           8.53200        21.50200        11.63900
C           7.87900        27.06400         8.97100
O           7.97200        27.74600         7.71200
H           7.73700        28.70100         7.89600
C           8.21600        25.61300         9.27000
O           7.66700        25.24100        10.54300
C           8.19700        24.01400        11.06700
O           7.50100        23.80400        12.30400
C           8.26600        24.14300        13.47100
C           7.67800        25.47700        13.90200
O           8.17400        26.49900        13.02600
H           7.79900        26.33700        12.11300
C           8.11300        25.95000        15.28000
O           7.35300        27.03500        15.83200
H           7.72700        27.15000        16.75300
C           8.58800        21.78500        14.30200
O           8.24600        20.97600        13.16700
H           8.40600        19.99500        13.27400
C           7.96600        23.14400        14.57700
O           8.57700        23.60400        15.79100
C           8.00300        24.82000        16.29000
O           8.61700        25.20400        17.52900
C           8.03300        24.69400        18.73700
C           8.68100        23.38100        19.14600
O           8.79600        22.34500        18.16000
H           9.01800        22.85100        17.32700
C           8.08600        22.91900        20.46600
O           8.91200        21.90100        21.05100
H           8.51600        21.65500        21.93600
C           7.43000        27.06000        19.49400
O           7.90700        27.87200        18.41100
H           7.48200        28.77000        18.52100
C           8.11400        25.74500        19.83200
O           7.42200        25.21700        20.97200
C           8.06000        24.04100        21.49100
O           7.24400        23.69400        22.61900
C           7.67600        24.05500        23.93900
C           7.14600        25.41500        24.36300
O           7.43100        26.41900        23.37700
H           7.22700        26.11500        22.44700
C           7.67200        25.81200        25.73300
O           7.15500        27.03700        26.27300
H           7.62300        27.09700        27.15500
C           8.24900        21.66400        24.74900
O           8.08500        20.95500        23.51200
H           8.17800        19.96700        23.64100
C           7.57000        22.99600        25.02400
O           7.95700        23.44800        26.33000
C           7.44100        24.71600        26.76000
O           8.20100        25.03000        27.93600
C           7.79100        24.71800        29.27600
C           8.24700        23.34200        29.73100
O           7.87300        22.31200        28.80500
H           8.10300        22.61300        27.87900
C           7.82200        23.00100        31.15000
O           8.50700        21.86900        31.70600
H           8.13600        21.67700        32.61400
C           7.73600        27.10700        29.92800
O           8.39300        27.87600        28.90900
H           8.47400        28.84500        29.14200
C           8.28700        25.73700        30.28900
O           7.71000        25.47400        31.57600
C           8.22000        24.19900        31.99600
O           7.50700        23.85700        33.19300
C           8.11500        24.23500        34.43700
C           7.53500        25.56200        34.90000
O           7.69600        26.67100        34.00300
H           7.50800        26.42200        33.05300
C           8.04500        25.88300        36.29500
O           7.40400        27.08300        36.75000
H           7.73100        27.12300        37.69400
C           8.18000        21.77900        35.24900
O           7.65300        21.02700        34.14600
H           7.79200        20.05500        34.33300
C           7.75500        23.21600        35.50600
O           8.40600        23.57200        36.73400
C           7.80800        24.75500        37.28600
O           8.63300        24.95400        38.44300
C           7.86800        24.66400        39.62100
C           8.11200        23.22900        40.05800
O           8.03600        22.17500        39.08600
H           8.26100        22.61600        38.21700
C           7.60300        22.92400        -0.60500
O           8.08800        21.74300         0.05100
H           7.73800        21.72800         0.98700
C           7.82600        27.01200        40.41800
O           8.16300        27.71000        39.21100
H           8.08300        28.64700        39.54900
C           8.37900        25.62100        -1.38000
O           7.79500        25.32500        -0.10200
C           8.01700        23.99500         0.39000
O           7.23700        23.82400         1.58200
C           3.57100        20.68600         0.12300
C           4.02100        19.33700        42.72200
O           3.70400        18.36400        41.71500
H           3.75100        18.78100        40.80800
C           3.43400        19.03800         2.03000
O           4.00000        17.82100         2.54100
H           3.82500        17.71600         3.52000
C           3.41000        23.19200         0.95400
O           3.76400        23.93200        -0.22300
H           3.56200        24.89500        -0.04200
C           3.82200        21.74700         1.18200
O           3.22100        21.38400         2.43400
C           3.69900        20.16300         3.01700
O           3.02600        20.10500         4.28400
C           3.83000        20.39400         5.43700