# freq=raman b3lyp/6-31+g(d,p) geom=connectivity

450K 5000ps Cellobiose Unit 1

0 1
 C(PDBName=C4,ResName=GLC,ResNum=1)                   11.09000000    7.53500000    1.99200000
 C(PDBName=C3,ResName=GLC,ResNum=1)                   11.43800000    8.92300000    2.50400000
 O(PDBName=O3,ResName=GLC,ResNum=1)                   12.45800000    9.43000000    1.63100000
 H(PDBName=HO3,ResName=GLC,ResNum=1)                  12.06400000    9.58500000    0.72500000
 C(PDBName=C2,ResName=GLC,ResNum=1)                   12.13100000    8.96900000    3.85600000
 O(PDBName=O2,ResName=GLC,ResNum=1)                   12.35900000   10.29400000    4.35800000
 H(PDBName=HO2,ResName=GLC,ResNum=1)                  12.51800000   10.86300000    3.55100000
 C(PDBName=C6,ResName=GLC,ResNum=1)                   10.11200000    5.27100000    2.62800000
 O(PDBName=O6,ResName=GLC,ResNum=1)                    9.42400000    4.42300000    3.55900000
 H(PDBName=HO6,ResName=GLC,ResNum=1)                   9.31200000    3.49600000    3.20200000
 C(PDBName=C5,ResName=GLC,ResNum=1)                   10.35600000    6.71400000    3.04000000
 O(PDBName=O5,ResName=GLC,ResNum=1)                   11.13300000    6.84000000    4.24000000
 C(PDBName=C1,ResName=GLC,ResNum=1)                   11.33900000    8.12600000    4.84200000
 O(PDBName=O1,ResName=GLC,ResNum=1)                   12.02800000    7.81300000    6.06100000
 C(PDBName=C4,ResName=GLC,ResNum=2)                   11.22000000    7.99900000    7.23200000
 C(PDBName=C3,ResName=GLC,ResNum=2)                   10.73800000    6.64000000    7.71400000
 O(PDBName=O3,ResName=GLC,ResNum=2)                    9.85800000    5.96000000    6.80800000
 H(PDBName=HO3,ResName=GLC,ResNum=2)                  10.22200000    6.02800000    5.87900000
 C(PDBName=C2,ResName=GLC,ResNum=2)                    9.91700000    6.63600000    8.99200000
 O(PDBName=O2,ResName=GLC,ResNum=2)                    9.38500000    5.38500000    9.45400000
 H(PDBName=HO2,ResName=GLC,ResNum=2)                   9.13300000    4.98700000    8.57200000
 C(PDBName=C6,ResName=GLC,ResNum=2)                   12.22500000   10.16000000    7.97500000
 O(PDBName=O6,ResName=GLC,ResNum=2)                   12.70700000   11.12200000    8.92300000
 H(PDBName=HO6,ResName=GLC,ResNum=2)                  13.67100000   10.93700000    9.11200000
 C(PDBName=C5,ResName=GLC,ResNum=2)                   11.94700000    8.71500000    8.35900000
 O(PDBName=O5,ResName=GLC,ResNum=2)                   11.20000000    8.58300000    9.57700000
 C(PDBName=C1,ResName=GLC,ResNum=2)                   10.81800000    7.27800000   10.03400000
 O(PDBName=O1,ResName=GLC,ResNum=2)                   10.11100000    7.42000000   11.27500000
 H                                                    10.74105115    7.50234188   11.99462168
 H                                                    11.69000024    6.67540671   10.18027685
 H                                                     9.08663851    7.29292196    8.83755476
 H                                                    11.59783264    6.02239530    7.86941000
 H                                                    12.88956972    8.22881282    8.50071929
 H                                                    10.36508030    8.58237762    6.96055413
 H                                                    11.31325166   10.55253793    7.57558927
 H                                                    12.93553400   10.13408156    7.17539406
 H                                                    11.06262421    4.82535220    2.42157409
 H                                                     9.54832978    5.28212495    1.71857594
 H                                                     9.40438050    7.17189387    3.21220204
 H                                                    11.99213973    7.02743779    1.72103043
 H                                                    10.46919232    7.62891793    1.12558367
 H                                                    10.57931315    9.56131342    2.49337595
 H                                                    10.39838436    8.58914196    5.05563931
 H                                                    13.08853126    8.50628938    3.73796288

 1 2 1.0 11 1.0 40 1.0 41 1.0
 2 3 1.0 5 1.0 42 1.0
 3 4 1.0
 4
 5 6 1.0 13 1.0 44 1.0
 6 7 1.0
 7
 8 9 1.0 11 1.0 37 1.0 38 1.0
 9 10 1.0
 10
 11 12 1.0 39 1.0
 12 13 1.0
 13 14 1.0 43 1.0
 14 15 1.0
 15 16 1.0 25 1.0 34 1.0
 16 17 1.0 19 1.0 32 1.0
 17 18 1.0
 18
 19 20 1.0 27 1.0 31 1.0
 20 21 1.0
 21
 22 23 1.0 25 1.0 35 1.0 36 1.0
 23 24 1.0
 24
 25 26 1.0 33 1.0
 26 27 1.0
 27 28 1.0 30 1.0
 28 29 1.0
 29
 30
 31
 32
 33
 34
 35
 36
 37
 38
 39
 40
 41
 42
 43
 44


