# freq=raman b3lyp/6-31+g(2d,p) geom=connectivity

493 7000.com

0 1
C           8.16000         8.12800         2.98500
C           7.55100         9.41100         3.52600
O           7.93300        10.47900         2.64700
H           7.73200        10.06900         1.75800
C           8.02600         9.75000         4.92900
O           7.12900        10.71700         5.49500
H           7.54000        11.06200         6.33900
C           8.36900         5.61300         3.65400
O           7.78800         4.87000         2.57300
H           7.87900         3.88700         2.73200
C           7.93700         7.02700         4.00800
O           8.60600         7.36000         5.23300
C           7.97700         8.51300         5.81100
O           8.72200         8.72300         7.01900
C           8.15600         8.46400         8.31300
C           8.70200         7.13600         8.81300
O           8.49300         6.10900         7.83200
H           8.68600         6.60900         6.98800
C           8.19300         6.80900        10.20700
O           8.63300         5.60900        10.85800
H           8.25900         5.53500        11.78200
C           7.81400        10.83900         9.02400
O           8.09600        11.54400         7.80600
H           8.00100        12.51700         8.01900
C           8.62400         9.57100         9.24300
O           8.41800         9.33900        10.64400
C           8.60700         7.98400        11.07700
O           7.71500         7.90100        12.19800
C           8.35300         8.16500        13.45600
C           7.90000         9.51200        13.99600
O           8.62000        10.44300        13.17400
H           8.68000        10.13000        12.22600
C           8.23700         9.76000        15.45700
O           7.39900        10.84600        15.88000
H           7.66300        10.98000        16.83500
C           8.39500         5.73300        14.38300
O           7.63700         4.87800        13.51500
H           7.80400         3.93400        13.79900
C           8.01100         7.19100        14.57200
O           8.66900         7.45500        15.81900
C           7.96600         8.57700        16.37200
O           8.70000         8.72000        17.59700
C           8.02000         8.22200        18.75900
C           8.71500         6.91400        19.09900
O           8.69700         5.94100        18.04400
H           9.00300         6.45300        17.24200
C           8.32100         6.54900        20.52100
O           9.07900         5.48200        21.10700
H           8.70900         5.38300        22.03100
C           7.64000        10.61400        19.60200
O           7.97700        11.41500        18.46100
H           7.75800        12.36200        18.69300
C           8.27800         9.25500        19.84400
O           7.70400         8.83400        21.08900
C           8.47000         7.69500        21.50900
O           7.83800         7.32700        22.74500
C           8.56000         7.71000        23.92400
C           7.94500         8.96400        24.52500
O           8.27900        10.00800        23.59900
H           8.05800         9.68900        22.67700
C           8.52300         9.43400        25.85000
O           7.71100        10.51700        26.32600
H           7.93200        10.71200        27.28100
C           8.90200         5.28300        24.77100
O           8.26800         4.61400        23.67100
H           8.26200         3.64000        23.89600
C           8.48700         6.71400        25.07000
O           9.11500         7.11600        26.29600
C           8.35500         8.23700        26.77100
O           8.83800         8.53400        28.08900
C           8.08900         8.24200        29.27800
C           8.67800         6.97600        29.87700
O           8.69800         5.82000        29.02700
H           9.13500         6.22000        28.22100
C           8.23100         6.59000        31.27800
O           9.01600         5.56000        31.89500
H           8.55100         5.40400        32.76700
C           7.50900        10.68300        29.97400
O           8.09800        11.42000        28.89300
H           8.04100        12.40800        29.03300
C           8.23600         9.38200        30.27300
O           7.76100         8.99000        31.56900
C           8.37700         7.83000        32.14500
O           7.77700         7.54400        33.41700
C           8.34100         7.97700        34.66400
C           7.66200         9.23900        35.17100
O           7.56600        10.26500        34.17300
H           7.16300         9.86400        33.35000
C           8.32900         9.79600        36.41900
O           7.72200        11.02900        36.82900
H           8.11400        11.37300        37.68300
C           8.52400         5.54500        35.51300
O           7.67300         4.86200        34.58100
H           7.95900         3.90400        34.61200
C           8.10100         6.97900        35.78500
O           8.74600         7.44700        36.97800
C           8.08400         8.65200        37.39000
O           8.83100         8.83900        38.60100
C           8.09400         8.49200        39.78300
C           8.67900         7.21200        40.35800
O           8.47400         6.06400        39.52200
H           8.68500         6.31400        38.57700
C           8.10900         6.75900        -0.36900
O           8.79300         5.60500         0.14100
H           8.57400         5.55600         1.11500
C           8.09600        11.02200        40.49500
O           8.73200        11.56000        39.32600
H           8.50900        12.53100        39.40500
C           8.43300         9.56900        -1.27300
O           7.89900         9.23600         0.01600
C           8.26600         7.95600         0.55300
O           7.52800         7.72400         1.76200
C           3.92300         4.37700         0.23400
C           4.28300         2.97800        42.76700
O           3.85000         1.91100        41.91100
H           4.03800         2.24800        40.98800
C           3.72800         2.75300         2.10300
O           3.84400         1.41500         2.60900
H           3.65900         1.38100         3.59100
C           4.08400         6.71100         0.99600
O           4.42900         7.40800        -0.21000
H           4.07600         8.33700        -0.10000
C           4.51900         5.28600         1.29600
O           3.94900         5.08900         2.59800
C           4.31900         3.78000         3.05400
O           3.63000         3.74200         4.31200
C           4.40100         4.07700         5.47400
C           4.04800         5.46600         5.98100
O           4.36100         6.45000         4.98500
H           4.13400         6.30800         4.02200
C           4.69300         5.74900         7.32800
O           4.54300         7.08800         7.82100
H           4.73100         7.26200         8.78700
C           4.27200         1.62200         6.29000
O           3.77800         0.74500         5.26800
H           3.91500        -0.22200         5.48700
C           3.94200         3.08600         6.53200
O           4.57600         3.40200         7.77900
C           4.22000         4.68800         8.30800
O           4.99600         4.72300         9.51600
C           4.16900         4.49700        10.66700
C           4.60900         3.14200        11.19800
O           4.28500         2.05600        10.31800
H           4.53200         2.34400         9.39300
C           4.09700         2.75200        12.57400
O           4.60300         1.49200        13.03900
H           4.19200         1.33500        13.93700
C           4.17600         6.95600        11.61700
O           4.60800         7.70900        10.47400
H           4.25500         8.63600        10.60100
C           4.46500         5.47400        11.79300
O           3.86500         5.10600        13.04400
C           4.36600         3.86900        13.56900
O           3.52400         3.67700        14.71500
C           4.21200         3.91700        15.95100
C           3.86200         5.29200        16.49600
O           4.14800         6.31400        15.53100
H           4.03300         5.82400        14.66700
C           4.44800         5.51800        17.88000
O           3.88300         6.74800        18.35500
H           4.34200         7.04800        19.19100
C           4.24600         1.47400        16.65700
O           3.72900         0.81200        15.49400
H           3.87100        -0.17700        15.51900
C           3.83400         2.89400        17.01000
O           4.36400         3.10000        18.32700
C           3.98700         4.40100        18.80300
O           4.73000         4.58800        20.01600
C           4.16600         4.32500        21.30900
C           4.62700         2.93500        21.71700
O           4.53000         1.93100        20.69600
H           4.73400         2.34400        19.80800
C           4.09500         2.61100        23.10400
O           4.73000         1.41400        23.57500
H           4.43000         1.24500        24.51400
C           3.94900         6.72800        22.12400
O           4.45100         7.50000        21.02400
H           4.15500         8.43000        21.24100
C           4.62300         5.37700        22.30600
O           4.10800         4.99400        23.59000
C           4.55100         3.70900        24.05100
O           3.71300         3.55800        25.20700
C           4.40900         3.95700        26.39700
C           4.05000         5.28900        27.03500
O           4.37200         6.24700        26.01600
H           4.41500         5.82700        25.10900
C           4.46800         5.59900        28.46300
O           4.05300         6.86000        29.00800
H           3.76000         6.74800        29.95800
C           4.39300         1.52300        27.17800
O           4.03600         0.68800        26.06600
H           4.39600        -0.23100        26.22700
C           4.00600         2.96300        27.47400
O           4.56000         3.20100        28.77600
C           4.09100         4.42700        29.35500
O           4.83000         4.36900        30.58400
C           4.08000         4.17600        31.79200
C           4.48600         2.79200        32.27200
O           4.21700         1.82300        31.24800
H           4.57400         2.24600        30.41600
C           3.84900         2.53700        33.62800
O           4.18400         1.25700        34.18400
H           3.89600         1.20400        35.14000
C           4.44600         6.62100        32.47600
O           3.38600         7.24300        31.73400
H           3.41300         8.18000        32.08200
C           4.43100         5.16100        32.89600
O           3.72900         4.92300        34.12500
C           4.19300         3.65200        34.60300
O           3.57900         3.41100        35.87700
C           4.22300         3.75000        37.11400
C           3.90000         5.17900        37.52200
O           4.08700         6.16500        36.49700
H           3.73000         5.80600        35.63500
C           4.60100         5.41800        38.85000
O           4.47400         6.76900        39.31700
H           4.50100         6.79800        40.31600
C           4.12200         1.34800        38.01200
O           3.79500         0.61100        36.82500
H           3.97700        -0.31800        37.14800
C           3.73300         2.80500        38.19800
O           4.20900         3.10000        39.51900
C           3.93700         4.47200        39.83800
O           4.65000         4.60200        41.07700
C           7.81900        16.07800         3.02400
C           7.31700        17.41000         3.55700
O           7.54700        18.45100         2.59600
H           7.23200        18.17300         1.68800
C           7.78100        17.85500         4.93400
O           7.18900        19.01500         5.53700
H           7.67700        19.32200         6.35400
C           8.04800        13.75000         3.72500
O           7.36300        13.06000         2.66900
H           7.57800        12.09000         2.78100
C           7.55300        15.11700         4.17100
O           8.02700        15.45000         5.48400
C           7.58300        16.73500         5.94300
O           8.46000        16.84100         7.07300
C           7.89800        16.49700         8.34800
C           8.49600        15.18000         8.81400
O           8.09700        14.18600         7.85800
H           8.22600        14.62500         6.96900
C           7.88000        14.75900        10.13800
O           8.53700        13.62500        10.72300
H           8.28600        13.50500        11.68400
C           7.63700        18.94700         9.12800
O           8.20900        19.67900         8.03300
H           8.03600        20.65800         8.14100
C           8.09400        17.53200         9.44300
O           7.49600        17.05800        10.65900
C           8.04600        15.84400        11.19000
O           7.32200        15.62600        12.40900
C           8.02600        16.04900        13.58600
C           7.56000        17.41200        14.07200
O           7.78400        18.41700        13.07300
H           7.70500        18.06900        12.13900
C           8.26200        17.77800        15.36900
O           7.65700        18.96000        15.91300
H           8.06500        19.16200        16.80400
C           8.53900        13.63100        14.33800
O           7.79800        12.91500        13.33900
H           8.11500        11.97100        13.43600
C           7.87500        14.96400        14.64000
O           8.53100        15.32900        15.86300
C           8.08700        16.61200        16.32800
O           8.70400        16.89400        17.59300
C           8.05900        16.46600        18.80100
C           8.40400        15.05600        19.25300
O           7.91000        14.11100        18.29300
H           8.30500        14.29700        17.39400
C           7.92900        14.68200        20.64800
O           8.28400        13.36200        21.08500
H           7.73500        13.12800        21.88800
C           7.95800        18.79400        19.59300
O           8.21700        19.58600        18.42500
H           7.95100        20.53700        18.58500
C           8.45700        17.39900        19.93200
O           7.77700        16.98700        21.12700
C           8.17100        15.73800        21.71400
O           7.35200        15.63500        22.88800
C           7.98100        16.01400        24.12100
C           7.57200        17.39800        24.60000
O           7.76800        18.41000        23.60200
H           7.43500        18.07000        22.72300
C           8.11300        17.95400        25.90600
O           7.55000        19.11800        26.52800
H           7.96500        19.27900        27.42400
C           8.04400        13.58900        24.94400
O           7.23800        12.89700        23.98000
H           7.72500        12.02700        23.90400
C           7.71100        15.03900        25.25600
O           8.50400        15.57100        26.32800
C           7.94000        16.78000        26.85600
O           8.76600        16.96100        28.01500
C           8.25900        16.61500        29.31200
C           8.91300        15.31600        29.75700
O           8.61200        14.25900        28.83400
H           8.96700        14.54300        27.94400
C           8.47500        14.86000        31.13900
O           9.35100        13.79100        31.52700
H           8.90900        13.43000        32.34800
C           8.06000        18.95800        30.05500
O           8.59400        19.64500        28.91400
H           8.45500        20.60500        29.15800
C           8.60400        17.58900        30.42700
O           8.06900        17.25800        31.71700
C           8.61200        15.99700        32.13700
O           7.72800        15.69200        33.22600
C           8.22900        16.05000        34.52200
C           7.75300        17.38000        35.08500
O           7.86900        18.50400        34.20100
H           7.74100        18.28700        33.23300
C           8.24400        17.81600        36.45600
O           7.74200        19.06300        36.95700
H           8.01900        19.23500        37.90200
C           8.62000        13.72000        35.26600
O           8.18400        12.93900        34.14500
H           8.26000        11.95600        34.31300
C           7.90800        15.02300        35.59500
O           8.37700        15.39700        36.89800
C           7.99600        16.67500        37.42900
O           8.69400        16.92400        38.65800
C           8.06900        16.54500        39.89300
C           8.68400        15.26400        40.43100
O           8.35300        14.26700        39.45300
H           8.54100        14.75700        38.60200
C           8.03600        14.83300        -0.32400
O           8.65100        13.71600         0.33400
H           8.21100        13.47800         1.20000
C           7.85000        19.03800        40.61900
O           8.47000        19.73700        39.53000
H           8.37300        20.72600        39.63300
C           8.26700        17.61300        -1.11600
O           7.58000        17.20300         0.07500
C           8.12700        16.00300         0.64100
O           7.23600        15.78900         1.74500
C           3.67600        12.48300         0.11800
C           3.99300        11.11100        42.75300
O           3.91700        10.09600        41.74100
H           3.89400        10.58400        40.86800
C           3.27200        10.80300         1.99500
O           3.28800         9.47400         2.53700
H           3.23000         9.50400         3.53500
C           3.47800        14.80900         0.94300
O           4.18200        15.47900        -0.11300
H           3.76400        16.37900        -0.23800
C           4.00300        13.42100         1.26800
O           3.28400        13.23200         2.49500
C           3.60100        11.91700         2.97500
O           2.99500        11.76100         4.26600
C           3.77100        12.13200         5.41400
C           3.32900        13.49000         5.93500
O           3.60800        14.43000         4.88700
H           3.37500        14.06300         3.98600
C           4.06400        13.76200         7.23800
O           3.56300        15.01800         7.71900
H           3.80600        15.21100         8.67000
C           3.93200         9.65500         6.29900
O           3.22200         8.91800         5.29300
H           3.49100         7.95500         5.32000
C           3.45200        11.08700         6.47100
O           4.06400        11.42500         7.72500
C           3.62800        12.69600         8.23000
O           4.36400        12.81400         9.45600
C           3.69900        12.64700        10.71700
C           3.99300        11.24200        11.21600
O           3.65200        10.21200        10.27600
H           3.90100        10.52900         9.36000
C           3.25400        10.94600        12.51100
O           3.56900         9.69500        13.13900
H           3.15400         9.59500        14.04300
C           3.77900        15.02000        11.43400
O           3.88700        15.70000        10.17500
H           3.73400        16.68400        10.26700
C           4.11700        13.59300        11.83200
O           3.54300        13.39000        13.13200
C           3.57300        12.01500        13.54300
O           2.87000        11.91300        14.78900
C           3.64400        12.05600        15.98900
C           3.38600        13.44800        16.54200
O           3.90100        14.45900        15.66200
H           3.72600        14.12900        14.73500
C           3.97900        13.73500        17.91200
O           3.32000        14.86500        18.50300
H           3.63300        14.94600        19.44900
C           3.82500         9.64400        16.73300
O           3.31700         8.97800        15.56800
H           3.32400         7.99700        15.76200
C           3.28200        11.02800        17.04800
O           3.89800        11.33300        18.30900
C           3.62300        12.62000        18.88100
O           4.27100        12.79900        20.14900
C           3.71300        12.36400        21.39800
C           4.27500        11.01100        21.80500
O           3.87500         9.98000        20.89000
H           3.93300        10.41700        19.99200
C           3.86400        10.65400        23.22400
O           4.42100         9.42500        23.71300
H           4.15400         9.29500        24.66800
C           3.56100        14.81500        22.06800
O           4.05700        15.55600        20.94400
H           4.06500        16.52600        21.18400
C           4.12700        13.44100        22.38600
O           3.65300        13.06300        23.68700
C           4.20800        11.81900        24.13800
O           3.58500        11.64500        25.41900
C           4.37400        12.00400        26.56200
C           4.04000        13.42400        26.98800
O           4.17400        14.38500        25.93100
H           3.78500        13.90900        25.14300
C           4.71700        13.81200        28.29200
O           4.31500        15.12700        28.70100
H           4.77700        15.31200        29.56900
C           4.41800         9.71600        27.57900
O           4.03200         9.02900        26.38000
H           4.33200         8.07600        26.41000
C           3.85100        11.12300        27.68500
O           4.49400        11.45900        28.92300
C           4.17100        12.80700        29.29400
O           4.74200        13.03600        30.59000
C           3.94900        12.62700        31.71400
C           4.28700        11.19100        32.07800
O           3.53400        10.38200        31.16200
H           3.88500        10.52600        30.23700
C           3.69300        10.90300        33.44700
O           4.21000         9.68200        33.99700
H           3.75300         9.59800        34.88200
C           4.01500        15.06500        32.43800
O           4.81500        15.60000        31.37400
H           4.55200        16.56000        31.27500
C           4.25700        13.61600        32.82600
O           3.59200        13.24800        34.04400
C           4.05200        11.95900        34.47900
O           3.27000        11.82700        35.67500
C           3.91900        12.02200        36.94000
C           3.69900        13.41900        37.49800
O           3.95100        14.39600        36.47800
H           3.58900        13.97100        35.64800
C           4.39700        13.64900        38.82900
O           4.15400        15.03200        39.12700
H           4.44500        15.25900        40.05600
C           3.82000         9.72800        37.78400
O           3.59500         9.04600        36.54100
H           3.78100         8.06500        36.58000
C           3.36500        11.15200        38.05600
O           3.74700        11.33300        39.42700
C           3.70300        12.71600        39.80800
O           4.47200        12.77400        41.01800
C           7.89200        24.13500         3.01000
C           7.29200        25.40500         3.59200
O           7.54600        26.46000         2.65400
H           7.34800        26.10300         1.74100
C           7.96800        25.84500         4.88000
O           7.54700        27.08500         5.46800
H           8.30000        27.27500         6.09900
C           8.41500        21.72100         3.78200
O           7.99300        21.11600         2.55200
H           7.89300        20.14400         2.76100
C           7.74100        23.05300         4.06700
O           8.42000        23.51300         5.24500
C           7.85500        24.68300         5.85400
O           8.66800        24.89000         7.01800
C           8.06900        24.64400         8.29800
C           8.44700        23.28000         8.85200
O           8.39400        22.26000         7.84400
H           8.70100        22.58900         6.95200
C           7.75900        22.96100        10.16900
O           8.20400        21.73000        10.75800
H           7.78700        21.60100        11.65800
C           8.13600        27.12400         8.90200
O           8.92300        27.81000         7.91800
H           8.80600        28.78700         8.09700
C           8.31400        25.69000         9.37400
O           7.55300        25.41500        10.56000
C           7.94800        24.14600        11.10100
O           7.19800        23.84200        12.28600
C           7.80100        24.15000        13.55200
C           7.22400        25.46800        14.04400
O           7.35100        26.52300        13.08000
H           7.05400        26.17700        12.19100
C           7.69300        25.84400        15.43900
O           7.06100        27.04700        15.90200
H           7.48300        27.23700        16.78800
C           8.04200        21.62300        14.25000
O           7.43000        20.88400        13.18300
H           7.74200        19.94000        13.28900
C           7.65800        23.05300        14.59300
O           8.24400        23.43500        15.84600
C           7.60600        24.62200        16.33900
O           8.28000        24.96600        17.55800
C           7.73100        24.64500        18.84400
C           8.38900        23.43200        19.48100
O           8.22900        22.31700        18.59100
H           8.62100        22.66100        17.73800
C           7.78400        23.14900        20.84600
O           8.41500        22.06000        21.53500
H           7.88400        21.84200        22.35500
C           7.37700        27.14800        19.44000
O           8.06600        27.90100        18.43100
H           7.86700        28.84700        18.68700
C           7.87000        25.77100        19.85500
O           7.12200        25.45400        21.03800
C           7.78500        24.38600        21.73000
O           7.03300        24.15600        22.93000
C           7.65500        24.47800        24.18300
C           7.20700        25.84100        24.68500
O           7.46400        26.87200        23.72100
H           6.96900        26.62900        22.88600
C           7.84400        26.13100        26.03400
O           7.53000        27.40900        26.60600
H           7.99900        27.52900        27.48100
C           7.66000        21.99000        24.99000
O           7.14400        21.34600        23.81600
H           7.38200        20.40000        24.03800
C           7.22800        23.43200        25.20000
O           7.97800        23.69300        26.39600
C           7.67900        24.96300        26.99300
O           8.58300        25.02500        28.10600
C           8.13200        24.72400        29.43500
C           8.43300        23.30800        29.89600
O           8.21300        22.25200        28.94900
H           8.30600        22.60500        28.01800
C           7.77900        22.89700        31.20500
O           8.43400        21.77300        31.81000
H           7.94300        21.58800        32.66100
C           7.97300        27.11700        30.27900
O           8.57300        27.72900        29.12800
H           8.63300        28.72700        29.15500
C           8.55300        25.72900        30.49500
O           7.91700        25.28800        31.70300
C           8.14000        23.96800        32.22000
O           7.25900        23.90400        33.35100
C           7.86000        24.13500        34.63300
C           7.43000        25.51000        35.11800
O           7.66500        26.59000        34.20300
H           7.48000        26.34800        33.25000
C           8.08400        25.83400        36.45100
O           7.82700        27.14500        36.97500
H           8.03800        27.17800        37.95200
C           8.06300        21.71400        35.26500
O           7.36100        20.95700        34.26900
H           7.57100        19.98800        34.39900
C           7.52900        23.07700        35.67400
O           8.15600        23.46400        36.90500
C           7.74200        24.73000        37.43900
O           8.50600        24.87700        38.64400
C           7.89300        24.44800        39.86900
C           8.56700        23.17600        40.35600
O           8.28200        22.15600        39.38700
H           8.54900        22.60300        38.53300
C           8.17500        22.77400        -0.29400
O           9.06400        21.77800         0.23200
H           8.63500        21.41000         1.05800
C           7.72600        26.90600        40.62900
O           8.58100        27.79200        39.89200
H           8.34200        28.75200        40.04100
C           8.23500        25.50000        -1.16100
O           7.58400        25.12200         0.06000
C           8.19300        23.96500         0.65100
O           7.33000        23.69500         1.76500
C           3.77700        20.63400         0.04500
C           4.09600        19.25000        42.64900
O           3.68100        18.31300        41.64500
H           4.02600        18.69800        40.79000
C           3.39300        18.97900         1.90800
O           3.79300        17.66100         2.31300
H           3.56600        17.50800         3.27500
C           3.49600        22.99100         0.94900
O           3.99600        23.57600        -0.26200
H           3.68000        24.51200        -0.10900
C           4.03400        21.59100         1.19800
O           3.44100        21.28600         2.46900
C           3.83600        19.99300         2.95000
O           3.17700        20.03600         4.22400
C           3.99800        20.13300         5.39700