# freq=raman b3lyp/6-31+g(2d,p) geom=connectivity

493 8000.com

0 1
C           7.96700         7.80100         3.16800
C           7.52900         9.16900         3.66500
O           7.72300        10.18900         2.67500
H           7.55100         9.76500         1.78500
C           8.20100         9.49000         4.99100
O           7.80700        10.77800         5.48500
H           8.13100        10.81300         6.43000
C           8.08000         5.37900         3.96400
O           7.87300         4.63000         2.75700
H           8.13400         3.66500         2.77900
C           7.51400         6.77100         4.19000
O           8.10300         7.06600         5.46500
C           7.73300         8.37800         5.91500
O           8.65800         8.41100         7.01200
C           8.04600         8.14300         8.28200
C           8.62500         6.83800         8.80500
O           8.37500         5.79700         7.85000
H           8.64300         6.11200         6.93900
C           8.06800         6.47500        10.17200
O           8.75100         5.38300        10.80400
H           8.28500         5.21100        11.67200
C           7.83400        10.62900         8.93400
O           8.55700        11.44000         7.99700
H           8.74400        12.31400         8.44600
C           8.28500         9.22900         9.31900
O           7.74800         8.91200        10.61100
C           8.17800         7.64600        11.13400
O           7.48100         7.51300        12.38100
C           8.07900         7.88600        13.63100
C           7.58800         9.24100        14.11200
O           7.78500        10.28800        13.15000
H           7.66600         9.88900        12.24100
C           8.18400         9.61600        15.45900
O           7.48700        10.74300        16.00800
H           7.97800        11.00900        16.83800
C           8.31600         5.43900        14.40400
O           7.60100         4.80900        13.33100
H           7.69800         3.81700        13.40700
C           7.87000         6.85500        14.72800
O           8.65700         7.24000        15.86500
C           8.13900         8.45100        16.43500
O           8.80500         8.70000        17.68200
C           8.20300         8.26000        18.90800
C           8.65800         6.93300        19.49100
O           8.10000         5.97200        18.58300
H           8.28800         6.20800        17.63000
C           8.07800         6.64900        20.86800
O           8.69200         5.47000        21.40900
H           8.15900         5.34800        22.24600
C           7.74300        10.64800        19.64000
O           8.30600        11.39200        18.55000
H           8.17200        12.37500        18.67700
C           8.38100         9.31300        19.99000
O           7.73000         9.02700        21.23600
C           8.25500         7.82400        21.81600
O           7.33100         7.68400        22.90500
C           7.97700         7.92400        24.16300
C           7.45800         9.23100        24.74000
O           7.75100        10.26200        23.78600
H           7.59500         9.87100        22.87800
C           8.08600         9.52600        26.09300
O           7.54900        10.68700        26.74400
H           8.08200        10.92200        27.55600
C           8.29100         5.39200        24.95400
O           7.80700         4.72900        23.77600
H           7.79300         3.74100        23.92500
C           7.83900         6.82200        25.20100
O           8.49500         7.12500        26.44000
C           7.94900         8.32300        27.01200
O           8.80600         8.40100        28.16000
C           8.19400         8.10300        29.42400
C           8.70600         6.73400        29.84300
O           8.20300         5.83500        28.84400
H           8.56000         6.19100        27.98000
C           8.26100         6.46600        31.27100
O           8.92200         5.30200        31.78900
H           8.54100         5.12400        32.69700
C           8.25500        10.65000        30.08800
O           8.88200        11.30900        28.97800
H           8.98000        12.28600        29.17000
C           8.59300         9.20100        30.39700
O           7.90200         8.82100        31.59700
C           8.50300         7.65700        32.18300
O           7.67500         7.56400        33.35100
C           8.18900         7.87500        34.65400
C           7.60200         9.19500        35.12600
O           8.00200        10.22700        34.21100
H           7.95800         9.91700        33.26100
C           8.12700         9.50000        36.51900
O           7.69400        10.78500        36.98700
H           8.29300        11.00600        37.75600
C           8.42200         5.42000        35.44400
O           7.91100         4.79200        34.25900
H           8.08000         3.82300        34.44000
C           7.86800         6.81300        35.69300
O           8.33400         7.15800        37.00600
C           7.79500         8.39100        37.50500
O           8.57000         8.58400        38.69700
C           7.98900         8.31600        39.98200
C           8.49400         6.95000        40.41800
O           8.21400         5.85300        39.53600
H           8.19900         6.31400        38.64800
C           8.03400         6.60100        -0.24600
O           8.70700         5.46800         0.32200
H           8.37100         5.29500         1.24800
C           7.93700        10.75100        40.83000
O           8.46700        11.30700        39.61900
H           8.36300        12.29800        39.53900
C           8.37000         9.31500        -1.00400
O           7.63500         8.94500         0.17100
C           8.22900         7.75900         0.71900
O           7.42700         7.48400         1.87700
C           3.79600         4.39100         0.26700
C           4.17300         3.00000        42.82700
O           3.81600         2.00000        41.86200
H           4.16500         2.35400        40.99500
C           3.71000         2.62100         2.15400
O           4.04300         1.28500         2.55900
H           3.70800         1.28600         3.50100
C           3.86900         6.75400         1.22200
O           4.45300         7.36700         0.06400
H           4.27000         8.34900         0.10100
C           4.23400         5.29100         1.41100
O           3.55900         4.95900         2.63300
C           4.11800         3.72700         3.11300
O           3.35400         3.53900         4.31400
C           4.04100         3.78300         5.55000
C           3.73400         5.18500         6.05100
O           4.02400         6.22700         5.10900
H           3.77500         5.96700         4.17600
C           4.47600         5.43200         7.35500
O           4.36400         6.79700         7.78200
H           4.42500         6.82200         8.78000
C           4.35800         1.46400         6.15500
O           3.83200         0.68100         5.07400
H           4.23300        -0.23000         5.17400
C           3.63100         2.73300         6.56900
O           4.14000         3.07200         7.86700
C           3.85400         4.41200         8.29500
O           4.39900         4.71300         9.58800
C           3.69200         4.35100        10.78400
C           4.14300         3.02500        11.37600
O           3.92600         1.99900        10.39600
H           4.23800         2.22400         9.47300
C           3.44000         2.78400        12.70200
O           3.75300         1.45200        13.13300
H           3.65700         1.37400        14.12500
C           3.82800         6.86600        11.59000
O           4.40700         7.56300        10.47700
H           4.21900         8.54400        10.52500
C           4.06100         5.38400        11.83600
O           3.38200         5.10600        13.06900
C           3.79300         3.88100        13.69300
O           3.08500         3.72300        14.93100
C           3.85900         4.00600        16.10600
C           3.69900         5.45000        16.55300
O           4.08800         6.44000        15.59100
H           3.59900         6.33000        14.72500
C           4.40000         5.66700        17.88400
O           4.01900         7.00000        18.25300
H           4.19300         7.20400        19.21600
C           4.16600         1.53900        16.73000
O           3.69900         0.80500        15.58800
H           4.00500        -0.14300        15.67100
C           3.62700         2.90400        17.12700
O           4.09100         3.29900        18.42600
C           3.84500         4.64400        18.86100
O           4.63900         4.69200        20.05400
C           3.99200         4.40600        21.30300
C           4.24400         3.00000        21.82400
O           3.82800         2.00700        20.87600
H           3.81400         2.51900        20.01700
C           3.60800         2.71800        23.17500
O           3.98300         1.41400        23.64200
H           3.77200         1.29100        24.61200
C           3.96400         6.78200        22.00900
O           4.38500         7.51200        20.84700
H           4.25600         8.47800        21.07100
C           4.43800         5.38500        22.37600
O           3.78400         5.07500        23.61600
C           4.11800         3.78000        24.13500
O           3.36300         3.63300        25.34700
C           4.06800         3.99400        26.54400
C           3.62900         5.34300        27.08900
O           3.84300         6.34200        26.08100
H           3.51700         6.04400        25.18400
C           4.17400         5.80400        28.43100
O           3.67900         6.97300        29.09900
H           4.06300         7.08900        30.01500
C           4.43000         1.59500        27.37200
O           3.99300         0.84800        26.22700
H           4.27200        -0.10400        26.36000
C           3.87300         2.98000        27.65900
O           4.43600         3.39300        28.91300
C           3.98200         4.65900        29.41200
O           4.76600         4.93700        30.58100
C           4.21400         4.45800        31.81500
C           4.64400         3.09500        32.33200
O           4.37100         2.02600        31.41500
H           4.70300         2.35300        30.53000
C           3.83400         2.81200        33.58700
O           4.04100         1.46400        34.03200
H           3.72400         1.45300        34.98000
C           4.09400         6.89000        32.62000
O           4.65800         7.64800        31.54000
H           4.49900         8.62400        31.69300
C           4.55800         5.46900        32.89700
O           3.98800         5.11700        34.16600
C           4.27800         3.79900        34.65400
O           3.42600         3.77400        35.80900
C           4.13800         3.96800        37.03900
C           3.83800         5.40100        37.44800
O           4.48600         6.38100        36.62400
H           4.09000         6.23100        35.71900
C           4.25000         5.61600        38.89500
O           3.97400         6.88900        39.49600
H           4.36500         6.86500        40.41600
C           4.05900         1.52200        37.78700
O           3.68900         0.82100        36.59100
H           4.00400        -0.11000        36.77300
C           3.63200         2.95600        38.05400
O           4.07500         3.22500        39.39200
C           3.67300         4.54000        39.80200
O           4.37600         4.64200        41.04900
C           8.16700        16.08500         3.19800
C           7.57400        17.42000         3.61900
O           7.81400        18.38600         2.58500
H           7.68400        17.95000         1.69500
C           8.10300        17.75100         5.00500
O           7.50900        18.97800         5.45500
H           7.79400        19.18300         6.39100
C           8.21700        13.61000         3.99000
O           7.90600        12.88900         2.78900
H           7.85600        11.90300         2.95000
C           7.78700        15.04600         4.24100
O           8.32200        15.34400         5.53800
C           7.83500        16.61900         5.98300
O           8.70700        16.93100         7.08000
C           8.19900        16.45000         8.33300
C           8.79600        15.19000         8.93800
O           8.74700        14.06700         8.04700
H           9.02200        14.47200         7.17500
C           8.19700        14.82300        10.28600
O           8.77800        13.72100        10.99900
H           8.12800        13.38300        11.67900
C           7.78900        18.91700         9.06800
O           8.31800        19.68300         7.97600
H           8.31400        20.65100         8.22800
C           8.33300        17.53500         9.38900
O           7.60300        17.17900        10.57200
C           8.23700        16.04700        11.18600
O           7.30200        15.85500        12.25700
C           7.91300        16.14300        13.52300
C           7.40400        17.43800        14.13500
O           7.48500        18.47700        13.14900
H           7.02300        18.10000        12.34700
C           8.01800        17.75100        15.49000
O           7.38300        18.87500        16.11600
H           7.86000        19.12400        16.95900
C           8.04900        13.68900        14.23000
O           7.50300        12.95500        13.12500
H           7.63400        11.96900        13.22700
C           7.67000        15.11100        14.61200
O           8.35600        15.32300        15.85500
C           7.88700        16.55600        16.42000
O           8.80200        16.71700        17.51400
C           8.24900        16.47300        18.81600
C           8.70200        15.11700        19.33000
O           8.35800        14.02500        18.46500
H           8.48900        14.39200        17.54400
C           8.04800        14.76300        20.65600
O           8.50100        13.49200        21.14500
H           8.45700        13.51800        22.14300
C           8.24200        18.84000        19.66400
O           8.38600        19.52400        18.41100
H           8.13100        20.47700        18.57500
C           8.73700        17.42200        19.89700
O           8.29300        17.18200        21.24100
C           8.56400        15.82300        21.61600
O           7.79600        15.57000        22.80200
C           8.36900        15.99000        24.04900
C           7.98000        17.32700        24.65600
O           8.33400        18.38500        23.75400
H           8.07700        18.02900        22.85600
C           8.50900        17.56000        26.06200
O           7.83900        18.72500        26.56500
H           8.22400        18.95300        27.46000
C           8.50800        13.47600        24.80200
O           8.05100        12.84300        23.59800
H           7.94200        11.85600        23.71600
C           8.08200        14.90900        25.07800
O           8.71800        15.19700        26.33100
C           8.22500        16.38000        26.97600
O           8.92500        16.56700        28.21600
C           8.13400        16.28400        29.37900
C           8.70900        15.04300        30.04200
O           8.69100        14.02600        29.03000
H           8.85700        14.49600        28.16300
C           8.10900        14.63200        31.37700
O           8.40300        13.36200        31.97600
H           8.03300        13.27100        32.90100
C           7.68900        18.76500        30.03800
O           8.44800        19.52600        29.08700
H           8.28600        20.50900        29.17900
C           8.18000        17.38100        30.43100
O           7.47300        16.97400        31.61200
C           8.03500        15.84300        32.29200
O           7.17600        15.68300        33.43100
C           7.87200        15.99300        34.64700
C           7.52600        17.38900        35.13800
O           7.66700        18.32600        34.06000
H           7.09900        18.04200        33.28800
C           8.15200        17.66400        36.49600
O           7.68300        18.91500        37.01900
H           8.12100        19.08900        37.90100
C           8.20200        13.56100        35.50400
O           7.54100        12.78600        34.49400
H           7.60500        11.80800        34.69200
C           7.58800        14.93700        35.70300
O           8.18300        15.26000        36.96800
C           7.88400        16.55800        37.50300
O           8.72500        16.65400        38.66200
C           8.18800        16.29100        39.94200
C           8.67400        14.94700        40.46200
O           8.20500        13.99000        39.50100
H           8.15800        14.36400        38.57500
C           8.33100        14.65400        -0.15700
O           9.09400        13.52900         0.30300
H           8.71400        13.16200         1.15200
C           8.19700        18.77000        40.75200
O           8.49300        19.50400        39.55600
H           8.49900        20.48300        39.76100
C           8.60100        17.32500        -1.08900
O           8.13500        17.08700         0.24800
C           8.59400        15.83100         0.76800
O           7.67700        15.84300         1.87100
C           3.99700        12.45200         0.36700
C           4.15000        11.04400        42.99600
O           3.77800        10.07900        42.00200
H           4.24200        10.26300        41.13600
C           3.42700        10.84500         2.24700
O           3.80200         9.53100         2.68400
H           3.59000         9.40500         3.65300
C           4.20000        14.90100         1.17300
O           4.68400        15.56800        -0.00100
H           4.38100        16.52100        -0.00300
C           4.50000        13.43000         1.41600
O           3.83100        13.19300         2.66300
C           4.00300        11.87500         3.20500
O           3.31700        11.66600         4.44800
C           4.00700        12.04800         5.64700
C           3.76100        13.46400         6.14200
O           4.07100        14.41500         5.11200
H           3.75900        14.05600         4.23200
C           4.36500        13.84800         7.48300
O           3.87500        15.12900         7.90500
H           4.09600        15.24500         8.87300
C           3.99200         9.69300         6.41800
O           3.54500         9.04800         5.21700
H           3.77600         8.08900         5.38600
C           3.62300        11.12000         6.78800
O           4.19600        11.48100         8.05300
C           3.88500        12.81300         8.48700
O           4.54200        13.00100         9.74900
C           3.78000        12.65300        10.91400
C           3.98000        11.22800        11.40300
O           3.88400        10.23900        10.36800
H           4.18500        10.65200         9.50800
C           3.33100        10.88800        12.73600
O           3.91700         9.64500        13.14700
H           3.99300         9.61800        14.14400
C           3.75600        15.07900        11.66900
O           4.19600        15.68000        10.44300
H           4.14000        16.64700        10.69100
C           4.10400        13.64200        12.02200
O           3.48800        13.21100        13.24400
C           3.91900        11.91700        13.68800
O           3.26800        11.91400        14.96700
C           4.08200        12.29200        16.08600
C           3.75800        13.65900        16.66500
O           4.23000        14.63100        15.72000
H           3.80300        14.44200        14.83500
C           4.42800        13.88100        18.01100
O           3.82300        15.02700        18.62800
H           4.26000        15.12600        19.52200
C           4.16900         9.79600        16.90900
O           3.92300         9.01700        15.72900
H           4.05100         8.04800        15.93900
C           3.71700        11.23300        17.11200
O           4.29800        11.51900        18.39300
C           4.10900        12.79400        19.02500
O           4.91400        12.83200        20.21200
C           4.12700        12.54900        21.37800
C           4.40900        11.17200        21.95700
O           4.11300        10.21300        20.93100
H           4.42700        10.67200        20.10000
C           3.76300        10.92400        23.31100
O           3.96700         9.63400        23.90600
H           3.68900         9.63500        24.86700
C           4.09800        14.91300        22.00800
O           4.65200        15.67000        20.92300
H           4.26000        16.56900        21.12000
C           4.59900        13.54100        22.42800
O           4.00200        13.26600        23.70400
C           4.22600        11.98100        24.30100
O           3.39800        11.97300        25.47200
C           4.10300        12.19700        26.70200
C           3.59000        13.52500        27.23600
O           3.84300        14.51800        26.23200
H           4.06200        14.17600        25.31800
C           4.33200        13.86100        28.51900
O           4.03600        15.14600        29.08500
H           4.12800        15.10700        30.08000
C           4.01100         9.74400        27.45700
O           3.25400         9.22000        26.35500
H           3.23600         8.22000        26.38700
C           3.81300        11.20700        27.81800
O           4.39000        11.55300        29.08500
C           4.04100        12.84200        29.60900
O           4.78700        13.00500        30.82400
C           4.01900        12.70400        31.99900
C           4.32700        11.27900        32.42900
O           4.09500        10.34100        31.36800
H           4.45700        10.74600        30.52900
C           3.72400        10.88000        33.76600
O           4.32600         9.63200        34.14100
H           3.92500         9.43200        35.03500
C           3.70000        15.01800        32.86600
O           3.97300        15.79100        31.68800
H           3.50900        16.67200        31.78200
C           4.36600        13.67500        33.11600
O           3.76600        13.23500        34.34300
C           4.07700        11.91800        34.81800
O           3.30700        11.67900        36.00500
C           3.96400        12.00300        37.23900
C           3.63000        13.39300        37.75400
O           3.80700        14.45400        36.80400
H           3.56600        14.10500        35.89900
C           4.45200        13.65800        39.00500
O           4.00300        14.89100        39.58800
H           4.44700        15.02300        40.47400
C           3.96200         9.60000        37.81500
O           3.45700         8.74400        36.78000
H           3.83700         7.83800        36.96600
C           3.56900        10.98700        38.29900
O           4.22900        11.25500        39.54500
C           4.12900        12.59700        40.04400
O           4.84400        12.59500        41.28800
C           7.54700        24.21200         3.08900
C           7.02200        25.59000         3.45500
O           7.32600        26.62200         2.50500
H           7.35600        26.16400         1.61700
C           7.49700        26.04600         4.82500
O           7.11800        27.29800         5.41600
H           7.57500        27.34500         6.30400
C           7.88100        21.84100         3.91500
O           7.17700        21.05400         2.94300
H           7.49300        20.10900         3.03100
C           7.22600        23.18900         4.16700
O           7.73800        23.66000         5.42200
C           7.20800        24.93300         5.81900
O           7.98900        25.12800         7.00700
C           7.66600        24.75600         8.35400
C           8.34700        23.45100         8.73000
O           8.26200        22.41000         7.74700
H           8.21600        22.90000         6.87600
C           7.66500        23.03000        10.02200
O           8.25200        21.80200        10.47700
H           7.96600        21.59700        11.41300
C           7.69100        27.20200         9.07300
O           8.26500        27.76000         7.88200
H           8.04800        28.73600         7.86800
C           8.09400        25.77300         9.40000
O           7.60100        25.38900        10.69200
C           8.01800        24.07000        11.07200
O           7.29100        23.82400        12.28400
C           7.97200        24.04700        13.52700
C           7.59500        25.42600        14.04300
O           8.11900        26.45300        13.18900
H           7.66700        26.37100        12.30100
C           7.98200        25.81000        15.46200
O           7.44100        27.02800        15.99200
H           7.66800        27.28700        16.93100
C           8.15400        21.69000        14.32100
O           7.79400        21.05100        13.08700
H           7.77700        20.06200        13.23100
C           7.54400        23.05500        14.59600
O           7.93000        23.41000        15.93200
C           7.55900        24.70800        16.42000
O           8.39100        24.88900        17.57500
C           7.83600        24.58000        18.86200
C           8.41700        23.27900        19.39300
O           8.04200        22.12500        18.62700
H           8.16800        22.43000        17.68300
C           7.78300        22.91200        20.72500
O           8.45900        21.70700        21.11300
H           8.14900        21.46400        22.03200
C           7.27500        26.92900        19.66400
O           7.64900        27.64400        18.47700
H           7.08500        28.46900        18.45800
C           7.99800        25.62400        19.95500
O           7.57200        25.21200        21.26200
C           8.14700        23.98600        21.73800
O           7.47500        23.56000        22.93200
C           7.85000        24.08500        24.21400
C           7.15800        25.37700        24.61700
O           7.30200        26.43500        23.65900
H           7.14100        26.10400        22.72900
C           7.61000        25.77600        26.01300
O           6.92200        26.97000        26.41600
H           7.17500        27.23400        27.34700
C           8.25300        21.66100        25.06800
O           7.73800        21.01800        23.89200
H           7.98000        20.04800        23.92700
C           7.61400        23.02400        25.27700
O           8.18500        23.49400        26.50700
C           7.46700        24.63300        27.00300
O           8.19300        25.05300        28.16700
C           7.72400        24.55400        29.42800
C           8.31600        23.25700        29.95700
O           8.34400        22.21400        28.97200
H           8.37500        22.58800        28.04500
C           7.77200        22.90000        31.33000
O           8.22300        21.68000        31.93700
H           7.69000        21.45300        32.75200
C           7.48100        27.01900        30.14700
O           7.92900        27.71900        28.97800
H           8.02300        28.69200        29.19000
C           8.05700        25.64200        30.43500
O           7.67300        25.31000        31.77700
C           8.10300        24.03800        32.28200
O           7.20700        23.94800        33.39900
C           7.78300        24.21800        34.68500
C           7.30100        25.55100        35.23400
O           7.74000        26.60600        34.36600
H           7.84600        26.24500        33.44000
C           7.80600        25.87800        36.63000
O           7.25800        27.08400        37.18100
H           7.73900        27.17300        38.05400
C           7.69500        21.75200        35.47100
O           7.22100        21.07400        34.29800
H           7.32100        20.09000        34.44400
C           7.39400        23.21400        35.75800
O           8.08600        23.50500        36.98200
C           7.53000        24.69900        37.54900
O           8.40700        24.72000        38.68500
C           7.80600        24.48100        39.96500
C           8.48400        23.20600        40.43800
O           8.51100        22.17600        39.44000
H           8.73400        22.60500        38.56400
C           7.83700        22.83500        -0.30800
O           8.26200        21.60000         0.28600
H           7.73200        21.47400         1.12500
C           7.45800        26.96900        40.72300
O           7.92300        27.71600        39.58900
H           7.81200        28.68700        39.80100
C           8.06300        25.59900        -1.10200
O           7.54100        25.28100         0.19600
C           8.05400        24.01200         0.62900
O           7.26400        23.69000         1.78200
C           3.68000        20.48700         0.42300
C           4.29600        19.18100        42.97400
O           3.97300        18.24500        41.93600
H           4.17400        18.68100        41.05900
C           3.69000        18.86100         2.26000
O           4.22400        17.64200         2.79600
H           3.74800        17.41800         3.64600
C           3.63000        22.92300         1.09800
O           4.19300        23.71000         0.03800
H           3.99200        24.64400         0.33400
C           4.08600        21.52000         1.46200
O           3.73500        21.22400         2.82100
C           4.17000        19.92200         3.23700
O           3.34400        19.73100         4.39400
C           3.79700        20.20900         5.66900