# freq=raman b3lyp/6-31+g(d,p) geom=connectivity

320 9000.com

0 1
O           7.81700         7.63700        22.87800
C           8.27000         7.86800        24.22000
C           7.85800         9.23400        24.74500
O           8.32900        10.25300        23.85200
H           8.03400         9.82500        22.99800
C           8.29700         9.49900        26.17600
O           7.66500        10.64500        26.76500
H           7.85600        10.74800        27.74200
C           8.45000         5.38600        24.91200
O           7.99800         4.75200        23.70600
H           7.76500         3.78300        23.78600
C           7.92400         6.77800        25.22100
O           8.42400         7.10100        26.52700
C           7.94300         8.33300        27.08400
O           8.74900         8.58500        28.24400
C           8.06800         8.17200        29.43800
C           8.77800         6.90200        29.87800
O           8.52800         5.85100        28.93300
H           8.77700         6.29600        28.07200
C           8.26600         6.37900        31.21000
O           8.97000         5.24200        31.73100
H           8.52100         4.77500        32.49300
C           7.51100        10.46700        30.34000
O           7.98400        11.37100        29.33100
H           7.83100        12.31600        29.62000
C           8.20800         9.14200        30.60000
O           7.56500         8.63200        31.77700
C           8.22000         7.45800        32.28000
O           7.54600         7.30900        33.53800

