%chk=alpha-D-glucose.chk
# opt freq=raman b3lyp/6-31+g(2df,p) scrf=(smd,solvent=water)
geom=connectivity

Furfural Raman

0 1
 O                  4.53230000    2.70920000   -0.13500000
 O                  3.63450000    1.97810000   -2.51410000
 O                  2.46050000   -1.07070000   -0.91400000
 O                  0.87470000    2.07090000   -2.04820000
 O                  2.32620000    2.28810000    0.27700000
 O                  0.37750000   -0.78280000    1.03440000
 C                  3.60210000    1.69240000   -0.10440000
 C                  3.53310000    0.99070000   -1.48480000
 C                  2.27460000    0.12360000   -1.66160000
 C                  1.03690000    0.91510000   -1.20470000
 C                  1.19610000    1.41170000    0.24030000
 C                  1.24490000    0.31800000    1.32940000
 H                  4.46960000    3.07910000   -1.03870000
 H                  2.72120000    2.19570000   -2.78000000
 H                  1.60500000   -1.35020000   -0.54020000
 H                  1.21560000    2.82090000   -1.52540000
 H                 -0.54240000   -0.48070000    1.09530000
 H                  3.90410000    0.98590000    0.67420000
 H                  4.41730000    0.35050000   -1.57040000
 H                  2.16850000   -0.10560000   -2.73300000
 H                  0.13520000    0.30350000   -1.31380000
 H                  0.33940000    2.06820000    0.44700000
 H                  1.00300000    0.76220000    2.30350000
 H                  2.23860000   -0.12040000    1.39650000

 1 7 1.0 13 1.0
 2 8 1.0 14 1.0
 3 9 1.0 15 1.0
 4 10 1.0 16 1.0
 5 11 1.0 7 1.0
 6 12 1.0 17 1.0
 7 8 1.0 18 1.0
 8 9 1.0 19 1.0
 9 10 1.0 20 1.0
 10 11 1.0 21 1.0
 11 12 1.0 22 1.0
 12 23 1.0 24 1.0
 13
 14
 15
 16
 17
 18
 19
 20
 21
 22
 23
 24

