# freq=raman b3lyp/6-31+g(2d,p) geom=connectivity
500 6000.com
500 6000.com
C           9.34400         7.70700         2.91700
0 1
O           9.92800        10.05500         2.60300
H           9.55900         9.99400         1.67500
C          10.09500         9.17600         4.79000
O           9.59000        10.44500         5.23100
H           9.82100        11.05200         4.47100
C           8.81400         5.30200         3.58100
O           8.58200         4.24900         4.52800
H           8.86800         3.31400         4.31900
C           8.87700         6.75900         4.00900
O           9.83400         6.79700         5.07900
C           9.76600         8.05600         5.76400
O          10.57800         7.96700         6.94400
C           9.74000         7.73900         8.08700
C           9.71800         6.34900         8.70000
O           9.32500         5.42300         7.67700
H           9.57600         5.82000         6.79400
C           8.79800         6.36100         9.91000
O           8.39900         5.00100        10.13000
H           7.80600         4.85200         9.33900
C           9.97700        10.19000         8.81900
O          10.93300        11.21600         9.12300
H          10.50800        12.11700         9.02900
C          10.24300         8.72600         9.12800
O           9.90000         8.42600        10.48900
C           9.66800         7.07900        10.92800
O           8.84100         7.21700        12.09200
C           9.44900         7.35600        13.38500
C           9.39200         8.80100        13.85100
O          10.35300         9.54200        13.08600
H          10.44000         9.17100        12.16100
C           9.71900         9.05000        15.31500
O           9.24000        10.35400        15.67400
H          10.00800        10.99600        15.66800
C           8.95000         4.96800        14.15800
O           8.49800         4.00100        15.11800
H           8.56900         3.16200        14.57700
C           8.74900         6.45600        14.39100
O           9.11100         6.76600        15.74500
C           9.04400         8.09400        16.28500
O           9.73100         7.93000        17.53400
C           9.18000         7.56800        18.80800
C           8.90900         6.12200        19.18900
O           8.07200         5.55400        18.17100
H           8.46800         5.73000        17.26900
C           8.21900         5.97300        20.53500
O           7.61100         4.69200        20.75400
H           7.06600         4.74000        19.91700
C          10.39200         9.55600        19.57500
O           9.46100        10.45200        20.19900
H           9.72600        11.38500        19.95600
C          10.03000         8.12500        19.93800
O           9.56300         7.84500        21.26600
C           9.21200         6.48600        21.56600
O           8.70000         6.65900        22.89500
C           9.54300         6.99200        24.00800
C           9.32600         8.41900        24.48400
O          10.13200         9.07200        23.49300
H           9.66500         8.93500        22.62000
C           9.97800         8.71500        25.82500
O           9.76400        10.02700        26.36500
H          10.19600        10.82000        25.93400
C           9.60400         4.64000        24.73400
O           8.94700         3.55800        25.41000
H           8.79300         2.84500        24.72500
C           9.07600         6.02200        25.08100
O           9.73300         6.35500        26.31300
C           9.42300         7.67400        26.78400
O          10.15600         7.46400        28.00000
C           9.42200         7.36200        29.22800
C           9.35700         5.91800        29.70100
O           8.86300         4.94600        28.76800
H           9.27400         5.10200        27.87000
C           8.52700         5.79000        30.96800
O           8.67900         4.41300        31.34200
H           8.24200         3.97400        30.55600
C          10.30400         9.54800        29.86800
O          10.80000        10.32600        30.96700
H          10.66500        11.28600        30.72200
C           9.98900         8.15700        30.39300
O           9.22900         7.95100        31.59200
C           9.28000         6.58300        32.02300
O           8.71000         6.65700        33.33800
C           9.55600         6.88600        34.47400
C           9.33500         8.28300        35.03100
O           9.64000         9.29500        34.06000
H           9.36400         8.82600        33.22100
C           9.91400         8.45100        36.42700
O           9.64100         9.73800        37.00000
H           9.83200        10.43900        36.31400
C           9.22300         4.34200        35.16500
O           8.58100         3.48000        36.11600
H           8.60700         2.56200        35.72000
C           9.04200         5.82700        35.43600
O           9.40800         6.06100        36.80300
C           9.14800         7.40800        37.22500
O           9.91600         7.36200        38.43600
C           9.09700         6.97300        39.54900
C           9.00800         5.49600        39.89300
O           8.25700         4.74400        38.92800
H           8.72700         4.79500        38.04700
C           8.37800         5.28400        41.26000
O           8.20300         3.88300        41.51300
H           7.56100         3.57200        40.81200
C           9.76700         9.23800        40.30100
O          10.29100         9.96800        41.42000
H          10.06200        10.93200        41.29000
C           9.54700         9.40200        -1.13300
O           8.86400         9.16200         0.10600
C           8.97100         7.76900         0.43600
O           8.47300         7.65900         1.77700
C           4.26700         3.96000         1.25700
C           4.96600         2.73500         1.82400
O           4.49800         1.75700         0.88400
H           4.55100         2.15900        -0.03000
C           4.46300         2.20500         3.15700
O           5.39300         1.21400         3.61700
H           5.06600         0.39000         3.15300
C           4.06600         6.47600         1.96900
O           4.65800         7.21700         3.04600
H           4.68700         8.13600         2.65200
C           4.37400         5.03200         2.32900
O           3.82300         4.57400         3.57200
C           4.48300         3.40800         4.08600
O           3.72000         3.23500         5.28900
C           4.37600         3.40200         6.55400
C           3.81400         4.67200         7.17200
O           3.82600         5.79800         6.28200
H           3.49000         5.62000         5.35800
C           4.40600         4.91600         8.55000
O           3.66600         6.02700         9.07500
H           3.75400         6.79300         8.43800
C           4.43700         0.86800         6.99500
O           5.78600         0.41400         6.81000
H           5.89400         0.58200         5.83100
C           3.94300         2.23800         7.43100
O           4.63500         2.40000         8.67700
C           4.26500         3.62100         9.33400
O           5.16700         3.60500        10.45100
C           4.42600         3.33300        11.64900
C           4.87700         2.00900        12.24500
O           4.75800         0.98400        11.24900
H           5.10000         1.33500        10.37800
C           4.24300         1.55600        13.55100
O           4.56600         0.25700        14.06700
H           4.73100        -0.41800        13.34700
C           4.58400         5.73600        12.57300
O           5.00100         6.58800        13.65000
H           4.79900         7.53600        13.40400
C           4.84300         4.25300        12.78500
O           4.08200         3.96700        13.96700
C           4.33300         2.68600        14.56300
O           3.48300         2.57700        15.71400
C           4.21300         2.81400        16.92700
C           3.83100         4.16800        17.50200
O           4.27000         5.12400        16.52600
H           4.08000         4.75200        15.61800
C           4.34800         4.48300        18.89600
O           4.03700         5.79700        19.38300
H           4.45300         6.40000        18.70200
C           8.82100        33.24500        17.68900
O          10.08300        32.58400        17.52100
H          10.54800        32.77800        16.65700
C           3.84900         1.83400        18.03100
O           4.61100         2.18500        19.19500
C           3.96600         3.31800        19.79400
O           4.76200         3.16400        20.97800
C           4.07700         2.91000        22.21400
C           4.51500         1.58000        22.80600
O           4.42000         0.52100        21.84200
H           4.91900         0.87800        21.05300
C           3.85800         1.18500        24.11900
O           4.16900        -0.10000        24.67500
H           4.07700        -0.84600        24.01500
C           4.18600         5.32200        22.97500
O           4.31000         6.15500        24.13800
H           4.54400         7.05100        23.76100
C           4.63100         3.89200        23.23400
O           4.11900         3.55800        24.53200
C           4.33000         2.25400        25.09200
O           3.51700         2.08600        26.26200
C           4.33400         2.38200        27.40400
C           4.12400         3.76500        28.00000
O           3.67800         4.81200        27.12500
H           3.43800         4.40800        26.24200
C           5.25000         4.11800        28.95700
O           5.08700         5.44900        29.46800
H           4.86300         6.11600        28.75800
C           9.00900        32.80100        28.10000
O          10.00400        32.38400        27.15400
H           9.68700        32.84400        26.32500
C           4.31900         1.37200        28.54000
O           5.32900         1.75700        29.48400
C           5.02500         3.05300        30.01800
O           5.61600         3.09900        31.32500
C           4.99700         2.66700        32.54500
C           5.26800         1.27100        33.08200
O           4.98400         0.34200        32.02700
H           5.56900         0.60600        31.26000
C           9.24600        33.64100        34.26500
O           9.87800        32.48400        34.83000
H          10.09700        31.81700        34.11800
C           4.88900         5.01500        33.30800
O           4.93300         5.96600        34.38200
H           5.05400         6.87900        33.99400
C           5.18400         3.58800        33.74000
O           4.33400         3.22600        34.83800
C           4.69200         1.89800        35.24700
O           3.93800         1.91300        36.46700
C           4.51000         2.03700        37.77700
C           4.38400         3.50400        38.15300
O           5.13800         4.44600        37.37600
H           4.86900         4.38300        36.41500
C           4.88400         3.63700        39.58200
O           4.40100         4.88100        40.11000
H           4.74700         5.66500        39.59600
C           8.71900        32.62200        38.43900
O          10.02000        32.01500        38.43700
H          10.32400        32.15100        37.49400
C           3.84200         1.20000        38.85600
O           4.29000         1.29000        40.21600
C           4.37100         2.66200        40.62900
O           5.10200         2.76900        41.85900
C          11.38400        16.45800         1.95400
C          11.46000        17.84500         2.57000
O          12.20000        18.56900         1.57600
H          11.64000        18.52500         0.74800
C          12.04300        17.89400         3.97300
O          12.20900        19.18500         4.57700
H          12.28000        19.84200         3.82600
C          10.20700        14.35900         2.57900
O           9.68600        13.57500         3.66200
H           8.94000        13.07100         3.22600
C          10.54500        15.77400         3.02200
O          11.43400        15.64500         4.14200
C          11.37800        16.87300         4.88200
O          11.77200        16.29500         6.13500
C          10.80100        16.44700         7.18100
C          10.16500        15.09300         7.44800
O           9.38800        14.57100         6.36000
H          10.06700        14.65100         5.63000
C           9.66300        14.91700         8.87200
O           9.41200        13.54300         9.20000
H           8.58400        13.31900         8.68600
C          12.04000        18.43400         8.12600
O          12.73900        18.90600         9.28600
H          13.73500        18.82000         9.31600
C          11.58700        17.00100         8.35800
O          10.81300        16.91000         9.56400
C          10.63900        15.51900         9.87000
O           9.96800        15.51900        11.13900
C          10.86400        15.44900        12.25800
C          10.96000        16.87900        12.76400
O          12.00200        17.54600        12.03700
H          11.86300        17.31900        11.07300
C          11.39500        17.13900        14.19800
O          10.85900        18.40700        14.60100
H          11.15600        19.17100        14.02700
C          10.18100        13.07600        13.05300
O          10.81900        12.05600        13.83400
H          10.53800        11.12500        13.59900
C          10.26300        14.56700        13.34000
O          10.82400        14.75300        14.64700
C          10.74900        16.11000        15.11100
O          11.58400        15.90000        16.25900
C          10.81700        15.76200        17.46400
C          10.60500        14.31500        17.87700
O           9.89200        13.65200        16.82300
H          10.26700        13.79500        15.90800
C          10.21300        14.01400        19.31400
O          10.66400        12.65600        19.41500
H          10.50700        12.44800        18.45000
C          11.95700        17.91100        17.97800
O          12.61600        18.82500        18.86700
H          13.41900        18.46500        19.34100
C          11.73500        16.48000        18.44000
O          11.05700        16.30900        19.69200
C          11.02700        14.96000        20.18200
O          10.50700        14.91100        21.51900
C          11.29200        14.94500        22.71900
C          11.36000        16.39600        23.16700
O          11.89500        17.32700        22.21500
H          11.43400        17.18500        21.33900
C          12.08600        16.40000        24.50200
O          12.07700        17.76000        24.96100
H          12.20000        18.29300        24.12400
C          10.72600        12.57000        23.37400
O          10.52700        11.57600        24.39000
H          10.48900        10.68300        23.94000
C          10.72200        14.03100        23.79200
O          11.51800        14.13500        24.98200
C          11.42300        15.46800        25.50300
O          12.13500        15.43800        26.74900
C          11.29300        15.59500        27.90000
C          11.17500        14.19900        28.48900
O          10.64100        13.29000        27.51500
H          11.09200        13.36300        26.62500
C          10.39500        14.20600        29.79300
O          10.10900        12.84000        30.12700
H           9.69200        12.45100        29.30600
C          11.94400        17.75200        28.71800
O          12.94200        18.49300        29.43500
H          13.80100        18.00700        29.59700
C          12.02500        16.27100        29.04900
O          11.58000        16.07000        30.39800
C          11.15900        14.81700        30.95700
O          10.41400        15.13600        32.14100
C          11.27700        15.13800        33.28800
C          11.36500        16.56700        33.79900
O          12.35800        17.23200        33.00500
H          12.28000        17.17100        32.01000
C          11.91800        16.66300        35.21100
O          11.65800        18.03000        35.56400
H          12.18100        18.67600        35.00700
C          10.36600        12.82000        33.71100
O           9.96000        11.86300        34.70100
H           9.87800        11.01900        34.17100
C          10.48300        14.24500        34.22700
O          11.17000        14.43100        35.47300
C          11.13600        15.71700        36.10800
O          11.78400        15.12500        37.24400
C          10.98900        15.37100        38.41200
C          10.55400        13.97900        38.84300
O           9.62000        13.60500        37.82000
H          10.32100        13.52100        37.11300
C          10.10700        13.93100        40.29500
O           9.61900        12.62200        40.62100
H           8.94800        12.17000        40.03400
C          12.53600        17.28700        39.04500
O          11.70300        18.43500        38.83000
H          11.39300        18.45200        37.87900
C          11.98700        15.91900        39.41900
O          11.53600        15.83100        40.77800
C          11.16000        14.51900        41.22000
O          10.80100        14.88800        42.56000
C           5.49500        10.80800        41.56200
C           5.25500         9.36600        41.98000
O           4.43200         8.77500        40.96400
H           4.75300         9.02800        40.05100
C           4.45100        10.82500         1.55400
O           4.52700         9.40300         1.72900
H           3.70400         9.07900         1.26300
C           6.00600        14.74200         0.61100
O           6.37600        15.62200         1.68200
H           6.09900        16.51800         1.33500
C           5.94100        13.24600         0.87500
O           5.36100        12.94200         2.15200
C           5.22600        11.59100         2.61500
O           4.72400        11.73100         3.95200
C           5.60200        11.82300         5.08300
C           5.73900        13.26300         5.55000
O           6.50000        13.95300         4.54800
H           5.95700        14.08300         3.71700
C           6.25600        13.49500         6.96000
O           5.78500        14.83800         7.14100
H           6.52600        15.31300         6.66500
C           5.28700         9.49100         5.87400
O           4.87600         8.69400         6.99500
H           4.30600         7.97600         6.59600
C           5.06800        10.95700         6.21200
O           5.79900        11.21900         7.41900
C           5.59600        12.54000         7.94200
O           6.39900        12.36900         9.11800
C           5.72500        12.16900        10.36900
C           5.85300        10.69900        10.73300
O           5.44400         9.72900         9.75800
H           5.79000        10.06000         8.88000
C           5.06400        10.35800        11.98600
O           5.06300         8.96300        12.32500
H           5.60300         8.41400        11.68700
C           6.42400        14.47100        11.30100
O           5.10000        14.98100        11.08900
H           5.07500        15.98100        11.07000
C           6.30000        12.97300        11.52500
O           5.57800        12.61500        12.71300
C           5.76700        11.22500        13.01800
O           5.03600        11.16600        14.25100
C           5.63000        11.30400        15.55000
C           5.17700        12.67900        16.01400
O           5.67400        13.77900        15.23800
H           5.43700        13.65300        14.27400
C           5.87200        12.92300        17.34400
O           5.59500        14.20500        17.92500
H           5.95600        14.99900        17.43400
C           5.06600         8.86300        16.23400
O           5.19100         7.86500        17.25700
H           4.96400         6.96900        16.87400
C           4.96700        10.35100        16.53100
O           5.34300        10.60500        17.89200
C           5.34400        11.95200        18.38700
O           6.27000        11.87100        19.48100
C           5.81200        11.56600        20.80600
C           5.73400        10.11900        21.26600
O           5.28400         9.14600        20.31300
H           5.49600         9.44700        19.38300
C           4.81400        10.00000        22.47000
O           4.48700         8.62400        22.71100
H           4.58300         8.10200        21.86300
C           6.54500        13.83100        21.62500
O           7.45300        14.63300        22.39400
H           7.17900        15.57700        22.21200
C           6.39900        12.35600        21.96400
O           5.81900        12.08400        23.24700
C           5.61900        10.69600        23.55500
O           4.96100        10.64300        24.82900
C           5.72200        10.82100        26.03200
C           5.74800        12.20400        26.66100
O           6.46300        13.16600        25.87200
H           5.92700        13.26600        25.03400
C           6.45100        12.36600        27.99900
O           6.13200        13.58100        28.69300
H           6.54900        14.24300        28.07000
C           5.36000         8.28900        26.53100
O           4.99600         7.06400        27.18400
H           4.30600         6.50700        26.72200
C           5.36700         9.72600        27.02600
O           6.05900         9.96300        28.26100
C           5.96100        11.24400        28.90000
O           6.77600        11.04000        30.06300
C           6.02900        10.90900        31.28100
C           5.79000         9.48200        31.74800
O           5.24400         8.66300        30.70400
H           5.70100         8.99400        29.87800
C           4.85100         9.64800        32.93200
O           4.13600         8.52900        33.47500
H           3.50200         8.29400        32.73800
C           7.15000        13.06400        32.02000
O           6.26700        14.06100        31.48400
H           6.18900        13.89900        30.50000
C           6.57400        11.72300        32.44300
O           5.77700        11.75500        33.63600
C           5.64300        10.37500        34.00600
O           4.89300        10.52100        35.22000
C           5.60900        10.57500        36.46300
C           5.40900        12.00000        36.95400
O           5.92500        12.89700        35.96000
H           5.70200        12.39400        35.12500
C           6.14700        12.05700        38.28200
O           6.34500        13.35300        38.86500
H           6.96500        13.78700        38.21100
C           5.30300         8.11300        37.04300
O           4.84000         7.18500        38.03400
H           4.65100         6.29700        37.61400
C           4.99300         9.55500        37.40700
O           5.53600         9.70900        38.72600
C           5.37300        11.07200        39.14300
O           6.18900        10.89400        40.30900
C          13.39100        24.09700         2.06700
C          14.01800        25.43800         2.41600
O          14.85300        26.05900         1.42800
H          14.30800        26.04100         0.59000
C          14.71100        25.30500         3.76300
O          15.36200        26.53700         4.10200
H          15.63300        26.94300         3.22900
C          12.20400        22.14700         2.94100
O          11.33800        21.43100         3.83300
H          10.36400        21.46700         3.60700
C          12.68800        23.54400         3.29500
O          13.40200        23.66100         4.53400
C          13.72600        25.01500         4.88400
O          14.14400        25.14200         6.25100
C          13.24900        24.76500         7.30800
C          13.31700        23.29500         7.68700
O          12.39900        22.53100         6.89100
H          12.53000        22.70900         5.91600
C          12.85500        23.02100         9.10900
O          13.34700        21.78300         9.64100
H          12.79100        20.97900         9.43100
C          13.78100        27.18800         8.32900
O          14.50800        27.67000         9.46900
H          14.44900        28.66200         9.36100
C          13.81500        25.66900         8.39100
O          13.01100        25.33600         9.53200
C          13.42700        24.06600        10.05400
O          12.80500        23.86900        11.33200
C          13.54600        23.74100        12.55400
C          13.82100        25.16700        13.00300
O          14.80900        25.89500        12.25900
H          14.37700        26.00000        11.36400
C          14.32500        25.09700        14.43500
O          14.69700        26.38700        14.94200
H          14.74600        26.96100        14.12500
C          12.33200        21.59800        12.98100
O          11.49400        20.81300        13.84100
H          10.72100        21.43500        13.96100
C          12.70900        22.95600        13.55000
O          13.13400        22.97800        14.92100
C          13.36600        24.33200        15.33200
O          13.93800        24.25500        16.64600
C          13.13900        24.25200        17.83900
C          13.20600        22.80700        18.30300
O          12.38300        22.12000        17.34900
H          12.74300        22.21500        16.42100
C          12.85200        22.45300        19.73800
O          13.10200        21.07400        20.04800
H          12.75600        20.43300        19.36300
C          13.42000        26.58100        18.73700
O          14.15500        27.57000        19.47200
H          14.15000        28.51700        19.15200
C          13.69400        25.10400        18.96900
O          13.15200        24.76900        20.25500
C          13.54600        23.44800        20.65400
O          12.83600        23.33000        21.89500
C          13.61700        23.44900        23.09300
C          13.74100        24.84600        23.67900
O          14.43200        25.76000        22.81500
H          14.01000        25.58200        21.92600
C          14.41600        24.79900        25.04000
O          14.47600        26.15700        25.50100
H          14.51700        26.68700        24.65400
C          12.60700        21.22300        23.44700
O          11.85400        20.33800        24.29000
H          10.99100        20.82700        24.42100
C          12.82800        22.59200        24.06900
O          13.45900        22.55100        25.35700
C          13.54800        23.88200        25.88600
O          14.39800        23.56600        26.99800
C          13.74500        23.32600        28.25200
C          13.48400        21.87800        28.63500
O          12.82000        21.27400        27.51500
H          13.28100        21.47400        26.65100
C          12.69900        21.87600        29.93600
O          12.18000        20.67000        30.51600
H          12.40300        19.86700        29.96300
C          14.24800        25.57200        29.15300
O          15.00800        26.51300        29.92600
H          14.87300        27.37600        29.44100
C          14.34600        24.08000        29.42700
O          13.70700        23.85400        30.69100
C          13.45900        22.50000        31.09500
O          12.67900        22.65800        32.29000
C          13.33600        22.78600        33.55900
C          14.05300        24.07000        33.94300
O          15.06600        24.44600        32.99800
H          14.44800        24.76500        32.28000
C          14.66700        24.01500        35.33200
O          15.18800        25.31800        35.63200
H          16.03100        25.25300        35.09800
C          12.04700        20.91900        34.37800
O          12.94800        19.81000        34.50800
H          13.28300        19.68500        33.57400
C          12.37000        22.37700        34.65900
O          13.12700        22.40400        35.87800
C          13.58900        23.67900        36.34900
O          14.07900        23.14100        37.58600
C          13.19500        23.12600        38.71600
C          13.18200        21.67100        39.15600
O          12.49400        20.90900        38.15300
H          12.61600        21.38200        37.28100
C          12.58600        21.48200        40.54200
O          12.69300        20.09300        40.88900
H          12.48700        19.49000        40.11900
C          13.86500        25.35100        39.52200
O          14.39400        26.23800        40.51800
H          14.23700        27.10000        40.03500
C          14.06000        23.85800        39.73000
O          13.52500        23.70000        41.05200
C          13.39600        22.34200        41.49800
O          12.70000        22.45500        42.74800
C           8.00300        18.68100        40.73600
C           7.51300        17.27600        41.04600
O           6.61400        16.80600        40.03100
H           7.01400        16.90100        39.12000
C           6.50800        18.96700         0.52500
O           5.68900        17.84100         0.87100
H           4.75600        18.09300         1.12700
C           8.74900        22.43900        -0.19300
O           9.37000        23.39800         0.67500
H           9.24700        24.32800         0.33000
C           8.56100        20.95600         0.08300
O           7.95400        20.66700         1.35100
C           7.34800        19.41700         1.71000
O           6.60500        19.72300         2.89900
C           7.37200        19.46200         4.08300
C           7.77100        20.84100         4.58400