# freq=raman b3lyp/6-31+g(2df,p) geom=connectivity

280 8000.com

0 1
 O                  7.47500000    7.57900000   12.37700000
 C                  8.12500000    7.81900000   13.63400000
 C                  7.59200000    9.16300000   14.10200000
 O                  8.27100000   10.20700000   13.38900000
 H                  8.18300000    9.83200000   12.46600000
 C                  7.80300000    9.50700000   15.56700000
 O                  6.94900000   10.57400000   16.00700000
 H                  7.25200000   10.78600000   16.93700000
 C                  8.13600000    5.44700000   14.31000000
 O                  7.57300000    4.55600000   13.33600000
 H                  7.69300000    3.63800000   13.71600000
 C                  7.50900000    6.80400000   14.58400000
 O                  7.84900000    7.10100000   15.94600000
 C                  7.36700000    8.35300000   16.45500000
 O                  8.18700000    8.46400000   17.62700000
 C                  7.64500000    8.25300000   18.93900000
 C                  8.41500000    7.00900000   19.35300000
 O                  8.15000000    5.99000000   18.37800000
 H                  8.33400000    6.44300000   17.50600000
 C                  8.10800000    6.61300000   20.78800000
 O                  8.78400000    5.43700000   21.25600000
 H                  8.54300000    5.21300000   22.20000000
 C                  7.57400000   10.66800000   19.50400000
 O                  8.02200000   11.34400000   18.32000000
 H                  8.14200000   12.32900000   18.44400000
 C                  8.16300000    9.32000000   19.88900000
 O                  7.72400000    8.94700000   21.20300000
 C                  8.36900000    7.77800000   21.72800000
 O                  7.84019181    7.47830703   23.02239021
 H                  8.13705232    7.44862232   11.69414688
 H                  6.54628428    9.21557792   13.88151373
 H                  9.19276838    7.77115483   13.58418509
 H                  6.44715900    6.76219586   14.45891560
 H                  8.15676036    4.91923411   15.24055477
 H                  9.15066577    5.62479200   14.02061552
 H                  6.31967671    8.34976404   16.67409693
 H                  8.82861358    9.75082016   15.75021711
 H                  6.58273168    8.12594691   18.95753453
 H                  9.23169038    9.35922365   19.85347012
 H                  7.74096536   11.33098140   20.32709066
 H                  6.51673976   10.53376452   19.40870242
 H                  9.42231229    7.95128862   21.80151378
 H                  7.05937648    6.40505768   20.83326265
 H                  9.45809048    7.24163774   19.30063653
 H                  8.56279420    7.33574598   23.63811916

 1 2 1.0 30 1.0
 2 3 1.0 12 1.0 32 1.0
 3 4 1.0 6 1.0 31 1.0
 4 5 1.0
 5
 6 7 1.0 14 1.0 37 1.0
 7 8 1.0
 8
 9 10 1.0 12 1.0 34 1.0 35 1.0
 10 11 1.0
 11
 12 13 1.0 33 1.0
 13 14 1.0
 14 15 1.0 36 1.0
 15 16 1.0
 16 17 1.0 26 1.0 38 1.0
 17 18 1.0 20 1.0 44 1.0
 18 19 1.0
 19
 20 21 1.0 28 1.0 43 1.0
 21 22 1.0
 22
 23 24 1.0 26 1.0 40 1.0 41 1.0
 24 25 1.0
 25
 26 27 1.0 39 1.0
 27 28 1.0
 28 29 1.0 42 1.0
 29 45 1.0
 30
 31
 32
 33
 34
 35
 36
 37
 38
 39
 40
 41
 42
 43
 44
 45

