# freq=raman b3lyp/6-31+g(2d,p) geom=connectivity

493 6391/6391.com

0 1
C           8.29900         7.91800         3.17400
C           7.83900         9.28600         3.65200
O           8.25600        10.21800         2.64400
H           8.10300         9.81700         1.74100
C           8.29300         9.76500         5.02100
O           7.43900        10.83300         5.45900
H           7.80400        11.11700         6.34500
C           8.75900         5.54900         3.93200
O           8.15900         4.78300         2.87700
H           8.63900         3.90600         2.88300
C           8.12700         6.88800         4.27800
O           8.84800         7.42700         5.39600
C           8.13000         8.55200         5.92300
O           8.78900         8.85900         7.16000
C           8.29200         8.37600         8.41700
C           8.80200         7.04600         8.94900
O           8.77600         6.02400         7.94200
H           9.01800         6.49800         7.09600
C           8.14500         6.59000        10.24200
O           8.74700         5.41700        10.80700
H           8.19500         5.29800        11.63200
C           7.81500        10.79000         9.19000
O           7.92200        11.49600         7.94500
H           7.82900        12.46400         8.17500
C           8.43000         9.43400         9.49900
O           7.92500         8.99400        10.76800
C           8.26900         7.69700        11.27700
O           7.51700         7.40900        12.46500
C           8.06100         7.87400        13.70900
C           7.31900         9.07600        14.27100
O           7.07800        10.13100        13.32900
H           6.69000         9.77100        12.48100
C           7.94700         9.53500        15.57700
O           7.37600        10.69500        16.19900
H           7.85800        10.99800        17.02100
C           8.36700         5.31500        14.39200
O           7.81700         4.64400        13.24900
H           7.87100         3.65000        13.34600
C           7.94900         6.74000        14.71500
O           8.53600         7.12600        15.96600
C           7.89700         8.30700        16.47200
O           8.68500         8.64300        17.62300
C           8.16300         8.31700        18.91900
C           8.77200         6.99700        19.36200
O           8.68900         5.94400        18.39100
H           8.74000         6.39300        17.49900
C           8.27800         6.66300        20.76100
O           8.64000         5.32100        21.11800
H           8.50300         5.21700        22.10300
C           8.08600        10.76400        19.56300
O           8.52000        11.43000        18.36900
H           8.58400        12.39200        18.63300
C           8.63000         9.38400        19.89700
O           8.32500         9.03200        21.25400
C           8.65400         7.73400        21.77100
O           7.69900         7.65700        22.84000
C           8.11800         7.92100        24.18700
C           7.64900         9.30000        24.62100
O           7.87600        10.33300        23.65100
H           7.88900         9.93400        22.73400
C           8.16400         9.62600        26.01300
O           7.49500        10.68600        26.71200
H           7.97900        10.86800        27.56800
C           8.30100         5.47700        25.04800
O           8.05200         4.74700        23.83800
H           8.43700         3.83700        23.98900
C           7.70100         6.86600        25.19900
O           8.35400         7.24200        26.42000
C           7.97900         8.49500        27.01200
O           8.87500         8.61700        28.12600
C           8.23800         8.29200        29.37000
C           8.74800         6.94300        29.84800
O           8.45300         5.87300        28.93900
H           8.44600         6.27200        28.02200
C           8.34400         6.45200        31.22900
O           9.04000         5.31200        31.75300
H           8.49600         5.04600        32.54900
C           7.92700        10.66700        30.14800
O           8.64600        11.39600        29.14400
H           8.40800        12.36700        29.19200
C           8.52800         9.30700        30.46400
O           7.98700         8.89400        31.72700
C           8.57400         7.65000        32.13600
O           7.80200         7.42000        33.32400
C           8.36500         7.70300        34.61300
C           7.88400         9.03400        35.16800
O           8.40800        10.05400        34.30500
H           8.30400         9.60600        33.41700
C           8.21600         9.38900        36.60800
O           7.49800        10.56400        37.01100
H           7.78100        10.94700        37.89100
C           8.34200         5.23300        35.36900
O           8.15500         4.62300        34.08300
H           8.16200         3.64300        34.28300
C           7.95400         6.67400        35.65400
O           8.52000         7.00300        36.93100
C           7.94700         8.18900        37.50100
O           8.64000         8.43100        38.73500
C           7.99200         8.01900        39.94700
C           8.54700         6.67600        40.39300
O           8.09900         5.68500        39.45700
H           8.51300         6.03600        38.61700
C           8.15200         6.41800        -0.23300
O           8.85500         5.25500         0.22800
H           8.60000         5.00800         1.16300
C           7.80000        10.48100        40.73300
O           7.99000        11.12900        39.46700
H           8.13200        12.11300        39.57100
C           8.37000         9.09200        -1.10800
O           8.02500         8.76800         0.24700
C           8.59200         7.53100         0.70400
O           7.79100         7.51300         1.89500
C           4.22200         4.21100         0.30800
C           4.57400         2.86400         0.91700
O           4.07100         1.81100         0.08200
H           3.99200         2.14600        -0.85700
C           4.00700         2.49400         2.27800
O           4.35900         1.24100         2.88200
H           3.88000         1.10400         3.74900
C           4.20900         6.67300         1.21900
O           4.75600         7.29200         0.04600
H           4.56100         8.27200         0.08300
C           4.53000         5.20100         1.41900
O           3.87500         4.89500         2.65900
C           4.31100         3.64900         3.21900
O           3.49700         3.43000         4.38100
C           4.03900         3.72800         5.67600
C           3.85500         5.15000         6.17900
O           4.15900         6.11100         5.15700
H           3.95300         5.70800         4.26500
C           4.65500         5.40600         7.44600
O           4.50800         6.79300         7.78400
H           4.47300         6.92000         8.77500
C           4.15400         1.36900         6.34800
O           3.67400         0.64500         5.20600
H           3.90100        -0.32200         5.32000
C           3.66500         2.74400         6.77300
O           4.28000         3.05800         8.03100
C           4.09400         4.41700         8.45400
O           4.73900         4.50200         9.73300
C           3.99100         4.17000        10.91200
C           4.27400         2.80500        11.51800
O           3.97600         1.76500        10.57500
H           4.19200         2.15800         9.68100
C           3.68100         2.64100        12.90800
O           4.12800         1.37600        13.41700
H           3.92400         1.34000        14.39500
C           3.81000         6.63900        11.57900
O           4.35300         7.35900        10.46300
H           4.16600         8.33200        10.59400
C           4.31500         5.25000        11.93200
O           3.63400         5.06400        13.18100
C           4.08300         3.83100        13.76200
O           3.44500         3.71400        15.04200
C           4.05100         3.93400        16.32300
C           3.66300         5.33500        16.76700
O           3.71800         6.43400        15.84600
H           3.58500         6.11800        14.90700
C           4.27800         5.52100        18.14500
O           4.10500         6.86000        18.63300
H           4.26800         6.91600        19.61800
C           4.03800         1.36600        16.87100
O           3.25800         0.68300        15.87900
H           3.41900        -0.30100        15.94400
C           3.63700         2.78700        17.23100
O           4.07700         3.10800        18.55900
C           3.72300         4.41700        19.03000
O           4.53800         4.53400        20.20400
C           3.89000         4.18400        21.43600
C           4.23400         2.79900        21.96000
O           3.98100         1.80600        20.95500
H           4.16900         2.30800        20.11100
C           3.70100         2.38200        23.32100
O           4.14600         1.11000        23.81300
H           3.84200         1.05500        24.76400
C           3.92100         6.58200        22.33900
O           4.38300         7.40400        21.25700
H           4.28500         8.38600        21.41500
C           4.32600         5.13100        22.54200
O           3.73200         4.70500        23.77700
C           4.19400         3.44600        24.28800
O           3.47800         3.39600        25.53100
C           4.22500         3.74500        26.70600
C           4.04700         5.16900        27.20800
O           4.36500         6.09200        26.15600
H           3.88400         5.73300        25.35700
C           4.69200         5.33900        28.57400
O           4.25600         6.62800        29.02900
H           4.42600         6.77300        30.00400
C           4.24900         1.28800        27.53200
O           3.51000         0.72400        26.43900
H           3.55700        -0.27300        26.49900
C           3.83800         2.73200        27.77100
O           4.38200         2.93900        29.08200
C           4.15900         4.28400        29.52900
O           4.85800         4.32700        30.78200
C           4.04500         4.09100        31.94000
C           4.23000         2.66300        32.42600
O           3.83200         1.73500        31.40600
H           4.24600         2.07400        30.56100
C           3.58300         2.43800        33.78300
O           3.97600         1.11400        34.17100
H           3.99700         0.95700        35.15900
C           4.07300         6.51600        32.68700
O           4.66000         7.25500        31.60600
H           4.53000         8.24100        31.71100
C           4.48800         5.08800        32.99900
O           3.81800         4.87300        34.25000
C           4.12200         3.53900        34.68200
O           3.48900         3.41000        35.96300
C           4.26400         3.81400        37.10100
C           3.90200         5.18900        37.63700
O           4.22000         6.18600        36.65500
H           3.83600         5.84300        35.79700
C           4.45600         5.50000        39.01800
O           4.01100         6.74200        39.58400
H           4.34000         6.87100        40.51900
C           4.59500         1.46600        37.86600
O           4.13500         0.65000        36.77900
H           4.18300        -0.31400        37.04300
C           3.93400         2.79700        38.18300
O           4.40500         3.11800        39.50000
C           4.07900         4.41700        40.01500
O           4.95100         4.31300        41.14900
C           8.09400        16.02300         3.02400
C           7.60400        17.35400         3.57100
O           7.77800        18.35900         2.56100
H           7.45500        17.96200         1.70200
C           8.23100        17.80400         4.88000
O           7.66800        19.02400         5.38400
H           7.90400        19.05800         6.35500
C           8.24400        13.55500         3.93500
O           8.17800        12.89200         2.66400
H           8.44200        11.93600         2.79400
C           7.93400        15.02600         4.16000
O           8.57100        15.47600         5.36500
C           7.96600        16.67700         5.86500
O           8.66500        17.03100         7.06700
C           8.14900        16.59600         8.33300
C           8.63900        15.23800         8.80900
O           8.48600        14.17700         7.85500
H           8.77100        14.55400         6.97400
C           8.02300        14.91600        10.16100
O           8.61800        13.74900        10.74600
H           8.10400        13.58700        11.58800
C           7.96800        19.08500         9.10600
O           8.21200        19.71500         7.84000
H           8.04300        20.69700         7.92500
C           8.45500        17.66800         9.36500
O           7.79100        17.32100        10.59000
C           8.17300        16.05700        11.15300
O           7.28100        15.94800        12.27300
C           7.83100        16.21700        13.57000
C           7.47300        17.62900        14.00400
O           7.99400        18.69000        13.19000
H           7.80500        18.42300        12.24600
C           7.89400        17.97300        15.42400
O           7.17600        19.14300        15.84200
H           7.60600        19.47000        16.68300
C           8.04200        13.73400        14.38700
O           7.62200        13.14400        13.14900
H           7.45200        12.19900        13.42800
C           7.59300        15.16400        14.64000
O           8.26700        15.60400        15.82800
C           7.70900        16.80600        16.38000
O           8.59100        16.97700        17.49800
C           8.10400        16.65900        18.81000
C           8.70700        15.37400        19.35300
O           8.58700        14.26400        18.45100
H           8.77600        14.56600        17.51700
C           8.19900        14.95700        20.72400
O           8.71400        13.76300        21.33100
H           8.18600        13.59700        22.16400
C           7.77700        19.15500        19.58500
O           8.30300        19.77600        18.40300
H           8.31800        20.76800        18.53300
C           8.19700        17.72600        19.88800
O           7.64400        17.30700        21.14500
C           8.27800        16.13600        21.68100
O           7.52400        15.69000        22.81700
C           8.07000        15.98200        24.11200
C           7.51700        17.31200        24.59800
O           7.81300        18.38900        23.69800
H           7.63500        18.02800        22.78300
C           8.07500        17.68800        25.96100
O           7.50900        18.92100        26.42900
H           8.06400        19.21200        27.20800
C           8.21900        13.56300        24.77200
O           7.50900        13.03100        23.64500
H           7.49200        12.03500        23.74300
C           7.75300        14.95100        25.18200
O           8.33700        15.28300        26.45000
C           7.80900        16.53400        26.91400
O           8.40900        16.76600        28.19600
C           7.81600        16.27900        29.40900
C           8.57400        15.05500        29.89800
O           8.58800        14.03000        28.89400
H           8.57500        14.46600        27.99400
C           8.15600        14.72900        31.32200
O           8.79400        13.52100        31.76100
H           8.41900        13.25500        32.64900
C           7.20500        18.68600        29.96200
O           7.99500        19.52400        29.10500
H           8.08500        20.48400        29.37200
C           7.91600        17.41900        30.40900
O           7.55100        16.95900        31.71800
C           8.27400        15.87300        32.31500
O           7.53500        15.38400        33.44400
C           8.07900        15.87200        34.67900
C           7.27700        17.10800        35.05300
O           7.68600        18.17200        34.18200
H           7.46400        17.93500        33.23600
C           7.65000        17.56400        36.45400
O           7.02700        18.75800        36.95000
H           7.57600        19.10000        37.71100
C           8.49100        13.44200        35.54200
O           8.07300        12.68000        34.40000
H           8.34900        11.74400        34.62000
C           7.76900        14.77200        35.68100
O           8.16800        15.19800        36.99200
C           7.51200        16.40000        37.42100
O           8.31300        16.69300        38.57600
C           7.86900        16.27100        39.87300
C           8.31200        14.89300        40.33900
O           7.92200        13.84100        39.44400
H           7.98800        14.27000        38.54300
C           7.94300        14.64300        -0.27900
O           8.80900        13.58800         0.16400
H           8.58600        13.51800         1.13700
C           7.73900        18.68600        40.56700
O           8.27200        19.43500        39.46600
H           8.31200        20.38500        39.77800
C           8.27700        17.30800        -1.15600
O           7.62100        16.91800         0.05900
C           8.28200        15.79200         0.65500
O           7.40900        15.74900         1.79300
C           3.87700        12.28000         0.45600
C           4.21000        10.88600         0.96400
O           3.84700         9.86200         0.02800
H           4.18100        10.24300        -0.83400
C           3.66200        10.59600         2.35200
O           4.10400         9.33400         2.87200
H           3.94500         9.23900         3.85500
C           3.87500        14.73400         1.21500
O           4.06700        15.46500        -0.00500
H           3.76400        16.41300         0.09700
C           4.41500        13.32800         1.41700
O           4.03500        13.07700         2.77800
C           4.26200        11.71900         3.18200
O           3.50700        11.74200         4.40200
C           4.24100        12.01800         5.60400
C           3.78000        13.38900         6.07100
O           3.98100        14.42900         5.10300
H           3.71900        14.13100         4.18400
C           4.28900        13.65600         7.47800
O           3.92100        14.96900         7.92700
H           4.13200        15.10200         8.89500
C           4.29100         9.56700         6.42800
O           3.53000         8.74300         5.53200
H           3.76800         7.77300         5.58000
C           3.83600        10.99900         6.65700
O           4.49100        11.36100         7.88100
C           3.86100        12.53600         8.41200
O           4.58500        12.59000         9.65000
C           3.81400        12.37000        10.84000
C           4.02500        10.97700        11.41000
O           3.76900         9.91700        10.47800
H           4.16900        10.22300         9.61400
C           3.27200        10.76000        12.71300
O           3.56100         9.45100        13.22700
H           3.46800         9.47100        14.22200
C           3.64000        14.73700        11.66100
O           4.16700        15.67900        10.71500
H           3.65200        16.53300        10.78100
C           4.28200        13.37600        11.87900
O           3.66800        13.10300        13.14700
C           3.86500        11.78100        13.66900
O           3.12000        11.93000        14.88600
C           3.92700        12.19900        16.04200
C           3.62100        13.55600        16.65500
O           4.14000        14.52800        15.73600
H           3.78500        14.19300        14.86400
C           4.19000        13.80400        18.04200
O           3.69600        15.00300        18.65700
H           4.04900        15.01700        19.59300
C           3.87200         9.76500        16.91800
O           3.30700         9.18300        15.73400
H           3.37800         8.19200        15.84300
C           3.53600        11.23000        17.14600
O           4.19700        11.31200        18.41700
C           3.86600        12.61200        18.92800
O           4.65700        12.64700        20.12500
C           3.97600        12.30800        21.34100
C           4.32200        10.94300        21.91300
O           3.79100         9.94400        21.03000
H           3.82900        10.30500        20.09800
C           3.64900        10.54700        23.21700
O           4.25700         9.35600        23.73600
H           3.94500         9.07000        24.64200
C           3.79600        14.75700        22.24900
O           4.44600        15.48600        21.19800
H           4.42300        16.48100        21.29700
C           4.20900        13.31000        22.46100
O           3.45300        12.87900        23.60200
C           3.97100        11.67400        24.18400
O           3.14600        11.53700        25.35000
C           3.88600        11.74500        26.56300
C           3.50200        13.10200        27.13000
O           3.72400        14.11900        26.14300
H           3.26600        13.76700        25.32700
C           4.15700        13.52100        28.43600
O           3.45300        14.61400        29.04500
H           3.70100        14.77000        30.00100
C           4.17700         9.33100        27.41300
O           3.81000         8.58800        26.24100
H           3.96900         7.67400        26.61300
C           3.64000        10.73000        27.66700
O           4.33600        11.10900        28.86300
C           3.99000        12.38200        29.42800
O           4.77400        12.51500        30.62300
C           4.10700        12.29700        31.87500
C           4.66400        10.96800        32.35900
O           4.65700         9.94100        31.35700
H           4.68700        10.39600        30.46700
C           4.06700        10.68000        33.72700
O           4.28400         9.38600        34.30900
H           3.67800         9.16500        35.07300
C           3.76600        14.72900        32.63600
O           4.07600        15.42000        31.41700
H           3.80600        16.37400        31.54800
C           4.41600        13.38000        32.89600
O           3.87000        13.06500        34.18500
C           4.33800        11.81200        34.70500
O           3.65600        11.58300        35.94700
C           4.26700        11.91300        37.20300
C           3.80800        13.27500        37.69800
O           4.20800        14.27300        36.74700
H           4.03400        13.95200        35.81600
C           4.36700        13.49000        39.09500
O           4.31700        14.84400        39.56800
H           4.45600        14.94500        40.55300
C           4.27800         9.48800        37.86200
O           3.69900         8.77100        36.76200
H           4.01500         7.82700        36.86300
C           3.75500        10.87700        38.19100
O           4.24000        11.17500        39.50800
C           3.88300        12.44100        40.08300
O           4.59200        12.58000        41.32200
C           7.78300        24.22600         2.90000
C           7.20600        25.51100         3.47100
O           7.19500        26.47500         2.40800
H           7.13200        25.96300         1.55200
C           7.87300        25.86500         4.79000
O           7.46200        27.07000         5.45300
H           7.70800        27.01700         6.42100
C           8.10500        21.84200         3.58500
O           7.72000        20.98600         2.49900
H           7.84700        20.04200         2.80400
C           7.43000        23.16100         3.92500
O           7.92400        23.43500         5.24400
C           7.58700        24.73100         5.76100
O           8.39000        24.86300         6.94300
C           7.81100        24.56900         8.22200
C           8.35600        23.26600         8.78400
O           7.99300        22.26400         7.82400
H           8.22300        22.65100         6.93100
C           7.90800        22.95700        10.20400
O           8.48300        21.77300        10.77500
H           7.94300        21.53400        11.58200
C           7.49500        27.02000         9.01700
O           8.08100        27.71300         7.90600
H           8.05700        28.70400         8.04000
C           8.07700        25.63900         9.26900
O           7.44900        25.25800        10.50200
C           8.07300        24.13800        11.14700
O           7.25500        24.03100        12.32100
C           7.89100        24.42000        13.54700
C           7.28500        25.69100        14.12100
O           7.28600        26.65500        13.05800
H           7.11300        26.18700        12.19100
C           7.83000        26.13800        15.46800
O           7.02700        27.19400        16.01300
H           7.36400        27.48900        16.90700
C           8.06000        21.96400        14.45100
O           7.36900        21.23000        13.42900
H           7.60400        20.26800        13.56800
C           7.67100        23.41700        14.66800
O           8.26600        23.71600        15.93900
C           7.64100        24.93300        16.37400
O           8.48600        25.10400        17.52100
C           7.94900        24.71300        18.79300
C           8.54500        23.42000        19.32800
O           8.28400        22.42700        18.32600
H           8.35400        22.88100        17.43700
C           7.92800        23.04100        20.66400
O           8.40100        21.82300        21.25800
H           7.94600        21.60600        22.12200
C           7.18700        27.03900        19.40400
O           7.85300        27.83700        18.41500
H           7.68600        28.79500        18.64800
C           8.03600        25.84300        19.80500
O           7.41000        25.38900        21.01400
C           7.96200        24.21500        21.62800
O           7.20700        23.99100        22.82800
C           7.91100        24.29500        24.04000
C           7.18900        25.52000        24.57700
O           7.26100        26.60100        23.63600
H           7.13000        26.20400        22.72700
C           7.59200        25.89100        25.99500
O           7.08700        27.02400        26.71600
H           7.56900        27.07800        27.59100
C           8.12400        21.75800        24.67600
O           7.58000        20.99800        23.58800
H           7.75800        20.04900        23.85100
C           7.60500        23.15100        24.99300
O           7.98800        23.49200        26.33400
C           7.46200        24.69200        26.91900
O           8.28500        24.89500        28.07700
C           7.62100        24.49000        29.28300
C           8.30500        23.19200        29.68000
O           8.27600        22.09400        28.75600
H           8.33700        22.42100        27.81300
C           7.76400        22.68300        31.00700
O           8.31700        21.48600        31.57200
H           7.85900        21.23200        32.42400
C           7.23300        26.83700        30.13800
O           7.90700        27.59200        29.12100
H           7.74700        28.56800        29.26800
C           7.84300        25.47400        30.42000
O           7.26200        24.92500        31.61100
C           7.88800        23.73100        32.10100
O           7.09400        23.62800        33.29200
C           7.80000        24.02300        34.47700
C           7.32800        25.39100        34.94100
O           7.49500        26.41600        33.95100
H           7.25800        25.94200        33.10300
C           7.95600        25.72400        36.28500
O           7.38400        26.93500        36.80000
H           8.00500        27.33000        37.47800
C           7.82100        21.57900        35.27900
O           7.31100        20.71600        34.25200
H           7.44200        19.76600        34.53500
C           7.37000        23.00900        35.52500
O           8.01800        23.41100        36.74100
C           7.63300        24.66400        37.32600
O           8.43800        24.94400        38.48000
C           7.82900        24.66400        39.74900
C           8.41900        23.36800        40.28100
O           8.14400        22.28600        39.38000
H           8.36800        22.66800        38.48400
C           7.85200        22.98000        -0.43500
O           8.43600        21.75600         0.03400
H           7.97900        21.56300         0.90200
C           7.56600        27.07500        40.54900
O           8.07300        27.77400        39.40300
H           8.20400        28.75200        39.56500
C           8.11000        25.68700        -1.22800
O           7.49100        25.33900         0.01900
C           8.10700        24.14100         0.51200
O           7.26000        23.82500         1.62600
C           3.53600        20.59600         0.06700
C           3.89600        19.21200        42.65600
O           3.75100        18.13900        41.71400
H           4.17000        18.43900        40.85700
C           3.33800        18.97500         1.97800
O           3.76300        17.70200         2.48700
H           3.44600        17.56000         3.42400
C           3.34700        23.01800         0.90700
O           3.92000        23.71300        -0.21100
H           3.60300        24.66100        -0.25500
C           3.87300        21.61200         1.14600
O           3.29300        21.27800         2.41600
C           3.80400        20.04700         2.95000
O           3.19200        19.93000         4.24300
C           4.03100        20.19100         5.37700