# freq=raman b3lyp/6-31+g(2d,p) geom=connectivity

550 6233/6233.com

0 1
C          10.20600         7.83700         1.74700
C          10.16400         9.22800         2.35900
O          10.92000        10.08200         1.48800
H          10.88000         9.87100         0.51200
C          10.83400         9.33100         3.72000
O          10.36300        10.42600         4.51800
H          10.86200        11.28500         4.40700
C           9.43800         5.51600         2.11900
O           8.86600         4.36300         2.75200
H           9.35100         3.51800         2.52500
C           9.47500         6.91600         2.71000
O          10.18900         6.95800         3.95400
C          10.18800         8.25200         4.57400
O          10.89300         7.98600         5.79500
C          10.20000         8.04800         7.05000
C           9.64500         6.72700         7.55800
O           8.74300         6.14600         6.60500
H           9.33300         6.19300         5.79900
C           8.91900         6.86900         8.88600
O           8.12200         5.75000         9.30200
H           7.42700         5.55500         8.60900
C          11.68700         9.77400         7.90600
O          12.19200        10.36500         9.11200
H          13.09400         9.93900         9.17500
C          11.10200         8.40700         8.22000
O          10.32300         8.64300         9.40200
C           9.91200         7.37000         9.92200
O           9.36800         7.68800        11.21200
C          10.18600         7.52900        12.38000
C          10.33400         8.94400        12.91800
O          11.20100         9.64200        12.01300
H          11.03000         9.42900        11.05000
C          10.86700         9.06600        14.33600
O          11.01500        10.33500        14.99000
H          11.44600        10.97800        14.35800
C           9.12500         5.33500        13.21700
O           8.51700         4.30100        14.00300
H           8.21200         3.44900        13.57700
C           9.43500         6.80000        13.48200
O          10.18900         6.91800        14.69700
C          10.16900         8.19000        15.36300
O          11.03900         7.80000        16.43500
C          10.52600         7.63200        17.76400
C           9.91400         6.31300        18.20900
O           9.51000         5.55500        17.06000
H           9.75000         6.11400        16.26600
C           9.03400         6.51200        19.43200
O           8.25500         5.35600        19.77100
H           7.48400         5.32900        19.13400
C          12.02900         9.49700        18.53600
O          11.19400        10.56900        18.07500
H          10.85500        10.41800        17.14600
C          11.54000         8.08300        18.80200
O          10.75600         8.13700        20.00300
C          10.03700         6.98700        20.47100
O           9.24700         7.37900        21.60300
C           9.98200         7.18900        22.82100
C          10.13600         8.59200        23.38700
O          11.08600         9.37700        22.65200
H          10.92600         9.32100        21.66700
C          10.42600         8.67500        24.87700
O          10.20100         9.94600        25.50400
H          10.45100        10.71300        24.91200
C           9.45000         4.89300        23.51700
O           8.67900         3.94600        24.27000
H           8.55700         3.12100        23.71900
C           9.19000         6.36000        23.81900
O           9.73700         6.36600        25.14500
C           9.76600         7.65000        25.78500
O          10.64800         7.22300        26.83300
C          10.08200         7.31100        28.14800
C           9.62200         5.98500        28.73300
O           9.05300         4.99400        27.86500
H           9.25600         5.23000        26.91500
C           8.91900         6.04100        30.08000
O           8.73100         4.66700        30.44800
H           8.83800         4.28500        29.53000
C          11.44900         9.13900        28.83600
O          12.36500         9.89300        29.64300
H          13.13800         9.26100        29.69100
C          10.84300         7.84300        29.35200
O          10.22200         7.97200        30.63900
C           9.80500         6.69000        31.13100
O           9.12200         6.81800        32.38600
C          10.11700         6.87300        33.41800
C          10.60600         8.26500        33.78200
O          11.18700         9.02900        32.71500
H          10.66500         8.84900        31.88200
C          11.41300         8.13800        35.06400
O          11.55400         9.40200        35.72900
H          11.67000        10.16000        35.08800
C           9.53000         4.39100        34.14300
O           8.93100         3.61600        35.19200
H           8.16000         4.12800        35.57000
C           9.65400         5.87100        34.46400
O          10.49200         6.04900        35.61500
C          10.64600         7.37800        36.13400
O          11.51300         7.13700        37.25200
C          10.74000         6.95700        38.44800
C          10.39900         5.53000        38.84400
O           9.90400         4.68700        37.79300
H          10.52000         4.45600        37.04000
C           9.40000         5.46500        39.98800
O           8.96600         4.11400        40.20100
H           9.27800         3.61100        39.39600
C          11.18800         9.34500        39.43100
O          12.09400        10.03400        38.55700
H          11.89000         9.84300        37.59700
C          11.21000         7.83500        39.59700
O          10.33700         7.55800        40.70100
C          10.18300         6.18100        41.07600
O           9.56100         6.03500        42.36100
C           4.70200         4.73700         0.18500
C           4.84900         1.56500        42.38700
O           4.60000         0.65000        41.31000
H           4.90800         1.02900        40.43800
C           3.66300         3.05500         1.75900
O           3.20700         1.73600         2.09300
H           3.42100         1.13300         1.32500
C           5.47100         6.91000         1.11400
O           5.92200         7.79100         2.15300
H           5.67900         8.70900         1.83900
C           5.16500         5.45800         1.44000
O           4.31100         5.19400         2.56300
C           4.25000         3.81100         2.94000
O           3.45300         3.80200         4.13300
C           4.26500         3.91500         5.31100
C           4.23100         5.28300         5.97200
O           4.78400         6.31200         5.13900
H           4.51300         5.98800         4.23200
C           5.16000         5.18700         7.17100
O           5.25200         6.50100         7.74000
H           5.27300         7.08400         6.92700
C           3.81700         1.51200         5.62200
O           3.35300         0.34400         6.31500
H           3.32400        -0.47600         5.74400
C           3.80700         2.86600         6.31200
O           4.59200         2.96400         7.50900
C           4.51400         4.23700         8.16700
O           5.25000         4.29100         9.39700
C           4.52400         4.15300        10.62800
C           4.16000         2.73600        11.03900
O           3.84800         1.81400         9.98500
H           4.41800         2.22600         9.27400
C           3.21700         2.73000        12.23200
O           2.64300         1.43000        12.42800
H           2.21900         1.05800        11.60200
C           5.46100         6.29900        11.44100
O           6.05700         7.12300        12.45400
H           6.16900         8.03600        12.06200
C           5.35100         4.80900        11.72200
O           4.55200         4.61800        12.89800
C           4.17100         3.28700        13.27600
O           3.63000         3.33200        14.60400
C           4.53300         3.39700        15.71700
C           4.66300         4.78800        16.31500
O           5.25900         5.68400        15.36500
H           4.72200         5.62000        14.52400
C           5.34900         4.85000        17.67000
O           5.82700         6.15300        18.03400
H           5.64200         6.75500        17.25700
C           4.23500         1.13600        16.21300
O           3.73000         0.18200        17.15900
H           3.70300        -0.72500        16.73900
C           4.04500         2.50400        16.84700
O           4.80600         2.57900        18.06100
C           4.63100         3.89400        18.60900
O           5.32400         3.96400        19.86400
C           4.61600         3.62400        21.06500
C           4.70500         2.18600        21.54900
O           4.29800         1.25400        20.53600
H           4.38800         1.64800        19.62200
C           4.06500         1.94900        22.90700
O           4.22500         0.55500        23.21000
H           4.16000         0.22700        22.26800
C           5.12400         5.99300        21.94600
O           5.21600         6.83900        23.10200
H           5.31900         7.79900        22.84300
C           5.22100         4.49100        22.15700
O           4.51800         4.14400        23.35900
C           4.68200         2.85200        23.96300
O           4.02100         2.99300        25.22900
C           4.86000         2.96500        26.39300
C           5.07400         4.38300        26.89400
O           5.42200         5.40200        25.94600
H           5.14300         5.11200        25.03000
C           5.68100         4.31200        28.28600
O           5.85700         5.57800        28.93900
H           6.66200         5.47300        29.52200
C           9.46100        33.56600        26.95800
O          10.64400        32.75500        26.91900
H          10.41300        31.78300        26.96600
C           3.86400         2.25500        27.29500
O           4.48500         2.16400        28.58500
C           4.76800         3.45400        29.14600
O           5.48800         3.45200        30.38800
C           4.82000         3.02800        31.58500
C           4.99800         1.56300        31.95200
O           4.45900         0.71400        30.92800
H           4.53100         1.15400        30.03300
C           4.27400         1.39400        33.27700
O           4.38800         0.04600        33.75800
H           4.29900        -0.64000        33.03500
C           5.49800         5.41300        32.38600
O           5.80000         6.25400        33.50900
H           5.62900         7.20400        33.24600
C           5.21600         3.95700        32.72100
O           4.44100         3.62600        33.88200
C           4.83400         2.32400        34.34100
O           3.93000         2.58600        35.42400
C           4.69600         2.66000        36.63500
C           4.91600         4.10000        37.07000
O           5.90000         4.84100        36.33400
H           5.87000         4.21500        35.55400
C           5.33800         4.25500        38.52200
O           5.31400         5.60600        39.00600
H           5.45300         6.19900        38.21300
C           9.93500        33.13200        37.37300
O          10.88100        32.12000        37.74600
H          10.88400        31.37500        37.07900
C           3.93700         1.89200        37.70600
O           4.39700         2.08300        39.05200
C           4.69600         3.38100        39.58700
O           5.58400         3.18200        40.69700
C          13.03600        15.70900         1.92700
C          13.32600        17.05700         2.56800
O          13.75800        18.07300         1.65100
H          13.35000        17.97200         0.74400
C          14.03600        16.89900         3.90200
O          14.52700        18.10300         4.50800
H          15.46100        18.34700         4.24600
C          11.48800        13.70900         2.33100
O          12.22200        12.51600         2.64200
H          11.87400        11.79300         2.04500
C          12.06700        15.00900         2.86700
O          12.35300        15.14500         4.26600
C          12.90400        16.37100         4.76900
O          13.46900        15.86500         5.98700
C          12.76500        15.72800         7.23000
C          12.79900        14.28300         7.70100
O          11.73000        13.78700         6.88200
H          11.69700        14.18100         5.96300
C          12.29600        14.01200         9.10900
O          12.77600        12.83000         9.76700
H          12.42600        11.97800         9.37700
C          12.94400        18.14700         8.16700
O          13.48200        19.20100         8.97900
H          13.05100        20.04900         8.67000
C          13.20100        16.66000         8.34900
O          12.29900        16.48700         9.45100
C          12.56000        15.19700        10.02300
O          11.77600        15.15800        11.22500
C          12.56900        15.34100        12.40700
C          13.02100        16.68300        12.95900
O          13.89800        17.39100        12.07100
H          13.78000        17.38400        11.07800
C          13.80500        16.64800        14.26100
O          13.72300        18.00500        14.71900
H          14.04100        18.66800        14.04100
C          11.41800        13.25000        13.14400
O          12.30300        12.12100        13.16200
H          12.93200        12.18000        12.38700
C          11.93000        14.61300        13.57900
O          12.70400        14.60000        14.78800
C          12.91300        15.93700        15.26600
O          13.53400        16.01800        16.55700
C          12.82900        15.78900        17.78500
C          13.07200        14.35200        18.21900
O          12.53000        13.43800        17.25400
H          13.14300        13.45400        16.46400
C          12.17700        14.28100        19.44500
O          12.14900        12.92200        19.90500
H          11.67800        12.41300        19.18400
C          13.69600        18.11500        18.39300
O          14.41900        18.90100        19.35200
H          14.37600        19.84600        19.02800
C          13.61500        16.64400        18.76600
O          13.01600        16.50900        20.06300
C          12.84100        15.15300        20.49800
O          12.10400        15.26000        21.72500
C          12.91200        15.32100        22.91000
C          13.25300        16.66500        23.53400
O          14.05400        17.46300        22.65000
H          13.61900        17.40700        21.75200
C          14.01100        16.44700        24.83300
O          14.59200        17.62900        25.40300
H          15.11900        17.96900        24.62400
C          11.74200        13.15400        23.65100
O          10.55000        12.64200        24.26200
H           9.94100        13.19300        24.83300
C          12.09000        14.60000        23.96500
O          12.68200        14.49000        25.26700
C          13.00600        15.79400        25.76900
O          13.54200        15.43600        27.05100
C          12.64400        15.45900        28.17000
C          12.65700        13.99500        28.57800
O          11.96100        13.18800        27.61700
H          12.49700        13.32000        26.78300
C          12.16100        13.84000        30.00700
O          12.50800        12.48300        30.31700
H          11.94200        11.72100        30.00300
C          13.29300        17.82000        29.07900
O          14.18400        18.57700        29.91100
H          14.10500        19.53100        29.62400
C          13.41500        16.30800        29.16800
O          12.94300        16.07200        30.50200
C          12.99900        14.70500        30.93500
O          12.27900        14.84900        32.16800
C          13.18400        14.50400        33.22600
C          13.70200        15.81100        33.80300
O          14.49200        16.62100        32.92000
H          14.19100        16.72400        31.97200
C          14.47200        15.53600        35.08500
O          15.10300        16.72100        35.59100
H          15.77700        17.12500        34.97200
C          11.92000        12.40100        33.78600
O          10.99400        11.71700        34.64300
H          10.20400        12.30300        34.82400
C          12.59600        13.64700        34.33600
O          13.25100        13.63200        35.61300
C          13.53100        14.94400        36.12100
O          14.13700        15.01200        37.42000
C          13.32800        14.88000        38.59800
C          13.10400        13.39300        38.82200
O          11.87200        12.96100        38.22600
H          11.74800        12.98700        37.23400
C          12.56500        13.23100        40.23400
O          12.44100        11.84400        40.58000
H          12.07700        11.16300        39.94400
C          14.03700        17.12300        39.27300
O          14.48900        18.21800        40.08200
H          14.48600        19.12400        39.65900
C          14.03300        15.66200        39.69400
O          13.26700        15.40900        40.88100
C          13.33900        14.02900        41.27000
O          12.52800        14.09700        42.45200
C           7.32600        11.07300        41.09600
C           6.43100         9.92600        41.53700
O           5.65600         9.42100        40.44000
H           6.05700         9.61600        39.54500
C           5.49600        11.88600         1.08200
O           4.84700        10.65900         1.44500
H           3.92600        10.61900         1.05700
C           8.87300        14.33600        -0.17000
O           9.41600        15.36200         0.67300
H           9.80900        16.20100         0.29700
C           8.15200        13.12400         0.39600
O           7.43900        13.34200         1.62200
C           6.67400        12.18700         1.99500
O           6.12700        12.20800         3.32100
C           6.86700        12.09500         4.54600
C           7.55500        13.34200         5.07600
O           8.45700        13.96400         4.14900
H           8.07900        13.81200         3.23600
C           8.44600        13.00000         6.25900
O           9.10400        14.11700         6.87400
H          10.02400        14.20400         6.49300
C           5.88600         9.86600         5.28000
O           5.04800         8.82700         5.80800
H           5.18300         8.08000         5.15700
C           6.05100        11.34500         5.58600
O           6.73000        11.24600         6.84600
C           7.48400        12.39200         7.26700
O           7.96700        12.37800         8.61800
C           6.99700        12.38600         9.67600
C           6.36900        11.14700        10.29300
O           5.36700        10.67100         9.38200
H           5.86300        10.48200         8.53400
C           5.62700        11.17400        11.61900
O           5.27000         9.87600        12.11600
H           4.30900         9.85100        11.84000
C           7.68300        14.61200        10.52300
O           8.62100        15.22800        11.41700
H           8.90200        16.13100        11.09300
C           7.53800        13.14100        10.87900
O           6.71000        13.28300        12.04200
C           6.59400        11.93200        12.51400
O           5.99000        12.09400        13.80500
C           6.93200        11.98900        14.88300
C           7.56100        13.22900        15.49900
O           8.16400        13.95900        14.42100
H           7.52500        13.97500        13.65200
C           8.51300        12.78900        16.59900
O           9.21800        13.99100        16.94100
H           9.63800        14.29500        16.08600
C           5.74800         9.71300        15.50200
O           6.79200         8.75800        15.26100
H           6.33400         8.02400        14.76000
C           6.27500        11.07900        15.90700
O           7.14100        10.88000        17.03400
C           7.63200        12.09300        17.62400
O           8.26200        11.71800        18.85700
C           7.42000        12.03200        19.97600
C           6.90600        10.67200        20.42000
O           6.09500         9.99800        19.44700
H           6.53600        10.10300        18.55500
C           6.05700        10.67900        21.68000
O           5.83900         9.29700        22.00000
H           5.87900         8.75800        21.15800
C           8.23000        14.19700        20.90800
O           6.94000        14.82400        20.93600
H           6.87000        15.23600        20.02700
C           8.17500        12.69300        21.11800
O           7.53600        12.48700        22.38600
C           6.99100        11.21200        22.75500
O           6.34800        11.27300        24.03600
C           6.96500        11.39600        25.32500
C           7.42300        12.73900        25.87100
O           8.11500        13.49600        24.86800
H           7.71400        13.43600        23.95400
C           8.27300        12.60900        27.12400
O           9.24200        13.56400        27.58000
H          10.03900        13.00000        27.79500
C           5.26300         9.54900        26.15900
O           6.09500         8.38000        26.18700
H           5.52700         7.59100        25.95400
C           5.98200        10.87200        26.36000
O           6.53400        11.02500        27.67600
C           7.18200        12.22800        28.11300
O           7.82800        11.66500        29.26400
C           7.11300        11.77400        30.50300
C           6.59400        10.42800        30.98200
O           5.74300         9.97300        29.91900
H           6.25800         9.98900        29.06200
C           6.07800        10.31500        32.40700
O           5.64800         8.97400        32.68500
H           4.68000         9.15200        32.50600
C           8.40500        13.59600        31.27800
O           9.38000        14.24600        32.10700
H           9.62700        15.14000        31.73500
C           8.07700        12.15100        31.61600
O           7.63100        12.05800        32.97700
C           7.10800        10.79600        33.41700
O           6.35200        11.16800        34.57800
C           7.02800        10.86400        35.80800
C           7.52300        12.20100        36.33600
O           8.47200        12.76700        35.42000
H           8.06400        12.67200        34.51200
C           8.20400        12.18400        37.69500
O           8.43600        13.45200        38.32500
H           9.15300        13.98300        37.87200
C           6.07400         8.80200        36.44200
O           7.13800         7.84400        36.54100
H           6.74600         6.92500        36.49500
C           6.10600        10.26400        36.85600
O           6.73300        10.28900        38.14700
C           7.24000        11.52600        38.66800
O           7.92400        10.96200        39.79600
C          14.05400        23.95900         3.91800
C          13.40200        25.26300         4.34900
O          13.46300        26.29600         3.35500
H          13.56900        25.75300         2.52200
C          13.79400        25.62200         5.77300
O          13.11900        26.86400         6.01700
H          13.50900        27.58500         5.44500
C          13.54300        21.49300         4.38300
O          13.26700        20.41200         5.28600
H          13.44400        19.54400         4.82300
C          13.50000        22.92700         4.88600
O          14.02400        23.25800         6.18000
C          13.47400        24.47100         6.71300
O          14.24400        24.62900         7.91400
C          13.65800        24.19700         9.15100
C          13.78000        22.73000         9.52900
O          13.07200        21.82100         8.67400
H          13.07000        22.15300         7.73100
C          13.52900        22.40000        10.99200
O          14.42800        21.31100        11.24200
H          14.11600        20.61100        10.59900
C          13.73700        26.53900        10.11900
O          13.90300        27.35500         8.95100
H          13.65600        26.91300         8.08800
C          14.13500        25.08200        10.29100
O          13.66200        24.65900        11.57700
C          14.07800        23.36300        12.03200
O          13.42800        23.00900        13.26100
C          14.04700        23.52500        14.44900
C          13.63500        24.90700        14.92700
O          13.95400        26.05700        14.13000
H          13.87500        25.85300        13.15400
C          13.94200        25.36400        16.34400
O          12.83000        26.11300        16.85700
H          12.88400        27.01300        16.42300
C          14.40700        21.26300        15.20300
O          14.18900        20.24200        16.18800
H          14.45400        19.38200        15.75000
C          13.85100        22.60700        15.64400
O          14.53300        23.03100        16.83300
C          13.85600        24.20000        17.31700
O          14.74300        24.28300        18.44200
C          14.09100        23.88200        19.65500
C          14.54600        22.47100        19.98900
O          14.24500        21.55400        18.92700
H          14.42600        22.00000        18.05100
C          13.98800        22.00600        21.32400
O          14.70700        20.89300        21.87500
H          14.84800        20.04200        21.36800
C          14.34700        26.34100        20.44500
O          14.91100        27.20800        21.44000
H          14.53700        28.12900        21.33900
C          14.49300        24.85900        20.74800
O          13.64800        24.39000        21.80900
C          14.12200        23.13900        22.32900
O          13.14900        23.04000        23.37900
C          13.85600        23.23000        24.61300
C          13.28700        24.50400        25.21600
O          13.53800        25.55700        24.27400
H          13.23000        25.40600        23.33500
C          13.92600        24.94300        26.52300
O          13.13800        26.06800        26.93900
H          13.36000        26.81700        26.31600
C          13.82500        20.82400        25.17000
O          13.09400        19.87900        25.96500
H          13.67400        19.08400        25.78900
C          13.57100        22.22100        25.71300
O          14.31800        22.57000        26.88800
C          13.82100        23.77500        27.49000
O          14.72800        24.00500        28.57800
C          14.46500        23.52000        29.90300
C          15.02300        22.13800        30.20300
O          14.56600        21.13600        29.28300
H          14.83200        21.49400        28.38800
C          14.57100        21.81000        31.61600
O          14.90200        20.52900        32.17100
H          14.23500        19.84900        31.86700
C          14.39200        25.89500        30.71500
O          15.07800        26.79900        31.59300
H          14.79800        27.73400        31.37600
C          14.89400        24.48700        30.99400
O          14.54100        24.05300        32.31500
C          14.94800        22.74800        32.75100
O          14.03100        22.59700        33.84400
C          14.48400        23.06900        35.12200
C          13.55800        24.18500        35.57800
O          13.88800        25.26400        34.69200
H          13.69800        24.82400        33.81400
C          13.85300        24.58000        37.01500
O          12.71900        25.35700        37.42700
H          12.72500        26.13600        36.79900
C          14.57400        20.50700        35.72800
O          14.00300        19.42500        36.47800
H          14.33500        18.51200        36.24300
C          14.30200        21.94700        36.13200
O          14.84000        22.42700        37.37300
C          13.82500        23.31600        37.86000
O          14.39600        23.61200        39.14300
C          13.94500        23.03200        40.37500
C          14.79900        21.81300        40.68200
O          14.83200        20.73100        39.74000
H          14.94500        21.15300        38.84000
C          14.33300        23.07800         0.34300
O          14.87900        21.76900         0.56000
H          14.75900        21.40900        -0.36500
C          13.73000        27.15200        -0.47600
O          14.39800        27.99700         0.47200
H          14.11800        28.95400         0.54400
C          14.14600        25.70300        -0.28000
O          13.84400        25.18200         1.02300
C          14.64500        24.07000         1.45100
O          13.81600        23.63700         2.54000
C           9.84900        20.50800         0.73200
C           9.87300        19.06900         1.22000
O           9.52400        18.13900         0.18400
H           9.29600        18.53300        -0.70700
C           8.85200        19.02700         2.34500
O           8.63300        17.71900         2.89300
H           8.32100        17.12400         2.15200
C          10.51600        22.88200         1.44500
O           9.68300        23.65400         0.56700
H           9.85100        24.63100         0.69400
C          10.18500        21.46000         1.86900
O           9.19300        21.34100         2.89900
C           9.29200        20.00800         3.41900
O           8.44300        20.08800         4.57300
C           9.18800        20.10900         5.80000