# freq=raman b3lyp/6-31+g(d,p) geom=connectivity

400 7000.com

0 1
O           9.16900         7.75300        22.30600
C           9.86900         8.01200        23.53200
C           9.44600         9.35200        24.11000
O           9.59800        10.40900        23.15100
H           9.67100         9.98200        22.24900
C          10.10700         9.83300        25.39100
O           9.68800        11.13800        25.81400
H           9.97000        11.17200        26.77300
C          10.18300         5.67300        24.53000
O           9.56200         4.74900        23.62400
H           9.52200         3.87500        24.10900
C           9.61000         7.07100        24.69700
O          10.19800         7.41700        25.95900
C           9.77200         8.72300        26.37500
O          10.59600         8.88100        27.53900
C          10.09200         8.52000        28.83300
C          10.45400         7.10400        29.24900
O          10.28600         6.07900        28.26000
H          10.28900         6.49100        27.34900
C           9.71900         6.89800        30.56400
O           9.96700         5.59700        31.11700
H           9.62700         5.31800        32.01500
C          10.51000        10.90000        29.63600
O          11.31500        11.43200        28.57400
H          11.45000        12.38600        28.84100
C          10.71900         9.41600        29.88900
O          10.04400         9.26600        31.14600
C          10.30700         7.91000        31.53400
O           9.57000         7.70900        32.74900

