# freq=raman b3lyp/6-31+g(2df,p) geom=connectivity

310 10000.com

0 1
 O                  7.46700000    7.73100000   12.24100000
 C                  8.05900000    7.83800000   13.54400000
 C                  7.71500000    9.22400000   14.06500000
 O                  8.06100000   10.25300000   13.12600000
 H                  7.97700000    9.98800000   12.16600000
 C                  8.25600000    9.55000000   15.44700000
 O                  7.60100000   10.72900000   15.93700000
 H                  7.99700000   11.13200000   16.76200000
 C                  7.95200000    5.35600000   14.18300000
 O                  7.49900000    4.89300000   12.90200000
 H                  7.61600000    3.90100000   12.87600000
 C                  7.60800000    6.79100000   14.55000000
 O                  8.23500000    7.16700000   15.78400000
 C                  7.86800000    8.41800000   16.38400000
 O                  8.72300000    8.60000000   17.52200000
 C                  8.02100000    8.42900000   18.76200000
 C                  8.49000000    7.03900000   19.15800000
 O                  8.04600000    6.02800000   18.24100000
 H                  8.25800000    6.25500000   17.29000000
 C                  8.03800000    6.75100000   20.58100000
 O                  8.68700000    5.63700000   21.21000000
 H                  8.31900000    5.47900000   22.12600000
 C                  7.98000000   10.85900000   19.55000000
 O                  8.38800000   11.45800000   18.31100000
 H                  8.29200000   12.44700000   18.42800000
 C                  8.39500000    9.42700000   19.84600000
 O                  7.85300000    9.16900000   21.14900000
 C                  8.38400000    7.89000000   21.52600000
 O                  7.82900000    7.56000000   22.80700000
 H                  8.53981149    7.39903187   23.43184901
 H                  8.15950924    7.67658654   11.57837633
 H                  7.53522826    4.71510786   14.93163782
 H                  9.01671153    5.25405582   14.21294552
 H                  6.54728182    6.86665712   14.66854512
 H                  9.12160564    7.76913450   13.43899140
 H                  6.64888835    9.24848087   14.15278748
 H                  9.31756635    9.68196981   15.42331783
 H                  6.83210815    8.45137884   16.64992089
 H                  8.35656397   11.47217056   20.34190999
 H                  6.91137798   10.89755731   19.58821409
 H                  9.46127912    9.41334118   19.93410372
 H                  6.96384881    8.43253501   18.59671578
 H                  9.55995849    7.04011256   19.14864107
 H                  6.97962690    6.59393649   20.58980019
 H                  9.44798295    7.96341579   21.61231574

 1 2 1.0 31 1.0
 2 3 1.0 12 1.0 35 1.0
 3 4 1.0 6 1.0 36 1.0
 4 5 1.0
 5
 6 7 1.0 14 1.0 37 1.0
 7 8 1.0
 8
 9 10 1.0 12 1.0 32 1.0 33 1.0
 10 11 1.0
 11
 12 13 1.0 34 1.0
 13 14 1.0
 14 15 1.0 38 1.0
 15 16 1.0
 16 17 1.0 26 1.0 42 1.0
 17 18 1.0 20 1.0 43 1.0
 18 19 1.0
 19
 20 21 1.0 28 1.0 44 1.0
 21 22 1.0
 22
 23 24 1.0 26 1.0 39 1.0 40 1.0
 24 25 1.0
 25
 26 27 1.0 41 1.0
 27 28 1.0
 28 29 1.0 45 1.0
 29 30 1.0
 30
 31
 32
 33
 34
 35
 36
 37
 38
 39
 40
 41
 42
 43
 44
 45

