# freq=raman b3lyp/6-31+g(2d,p) geom=connectivity

400 6533/6533.com

0 1
C           9.39100         8.05600         2.83500
C           9.39800         9.52700         3.21400
O          10.19800        10.30900         2.31500
H           9.80100         9.94200         1.47400
C           9.74700         9.81900         4.66500
O           9.43700        11.18800         4.95900
H           9.99900        11.52100         5.71600
C           8.99000         5.85000         3.69300
O           8.36500         5.32900         2.51100
H           8.49800         4.33900         2.56800
C           8.60600         7.30600         3.89800
O           9.01100         7.56800         5.24900
C           8.99300         8.94400         5.65400
O           9.84300         8.81100         6.80200
C           9.19900         8.52800         8.05300
C           9.62600         7.19300         8.64100
O           9.29900         6.16100         7.70000
H           9.23200         6.46000         6.74800
C           9.15000         6.82700        10.03800
O           9.83700         5.67300        10.54400
H           9.60600         5.42800        11.48600
C           9.20900        11.07800         8.65900
O          10.12400        11.72300         7.76100
H          10.10200        12.70900         7.92500
C           9.39200         9.63000         9.08200
O           8.73200         9.19600        10.28000
C           9.30600         8.05100        10.92600
O           8.45000         7.85500        12.06000
C           9.13400         8.09300        13.29900
C           8.97100         9.51800        13.80100
O           9.26500        10.45200        12.75200
H           8.74000        10.25800        11.92300
C           9.67800         9.73400        15.13000
O           9.51800        11.10400        15.52300
H           9.55700        11.15300        16.52100
C           8.29500         5.79000        14.06100
O           9.32000         5.08700        13.34400
H           9.20400         4.12500        13.09800
C           8.56500         7.24200        14.42300
O           9.27500         7.33800        15.66600
C           9.14400         8.69800        16.10500
O           9.84800         8.81300        17.35000
C           9.20900         8.61400        18.62000
C           9.48200         7.20400        19.11900
O           8.70100         6.30300        18.32100
H           8.65600         6.52800        17.34800
C           9.09900         6.91500        20.56100
O           9.58100         5.63700        21.00200
H           9.31800         5.49500        21.95600
C           9.52300        10.96300        19.30100
O          10.21100        11.61200        18.22100
H           9.87400        12.54000        18.37700
C           9.86100         9.52200        19.65000
O           9.21600         9.35500        20.92100
C           9.58900         8.06500        21.42600
O           8.82500         7.80400        22.61200
C           9.54600         8.11800        23.81300
C           9.01000         9.40400        24.41900
O           8.73200        10.38300        23.40700
H           8.70200         9.97400        22.49400
C           9.73300         9.69600        25.72400
O           9.50100        11.03200        26.19300
H          10.08000        11.13400        27.00200
C           9.56800         5.64000        24.49900
O           8.64600         5.07500        23.55600
H           8.70300         4.07700        23.56600
C           9.35500         7.08700        24.91300
O          10.13700         7.40100        26.07500
C           9.49400         8.53500        26.67500
O          10.24300         8.80400        27.86900
C           9.80800         8.46500        29.19400
C          10.03100         7.00300        29.54600
O           9.40600         6.11800        28.60500
H           9.67700         6.53000        27.73400
C           9.58500         6.76900        30.98000
O          10.00500         5.52500        31.55900
H           9.83600         5.44300        32.54200
C           9.83100        10.81200        30.03400
O          10.17900        11.62600        28.90500
H          10.12600        12.60600        29.09900
C          10.42900         9.42400        30.19600
O           9.92300         9.13900        31.50900
C          10.06200         7.79500        31.99400
O           9.08600         7.93500        33.03700
C           9.65800         8.05900        34.34700
C           9.56500         9.53100        34.71400
O          10.23200        10.45800        33.84500
H          10.21500        10.02100        32.94600
C           9.93600         9.79600        36.16400
O           9.36700        11.02900        36.62900
H           9.42700        11.09800        37.62400
C           9.23600         5.55300        35.15800
O           8.73400         4.96300        33.95000
H           8.92500         3.98300        33.90400
C           9.04500         7.05300        35.30800
O           9.69500         7.32300        36.55900
C           9.39400         8.65300        37.00600
O          10.05200         8.71800        38.27900
C           9.34300         8.51800        39.51000
C           9.62900         7.09500        39.96200
O           8.97300         6.13700        39.11800
H           9.16100         6.28200        38.14700
C           9.12400         6.82700        -0.60400
O           9.74000         5.64500        -0.07300
H           9.65200         5.64100         0.92300
C           9.53500        11.01700        40.28500
O          10.25500        11.51000        39.14500
H          10.29200        12.50900        39.11900
C           9.67200         9.55100        -1.38200
O           9.06900         9.24800        -0.11600
C           9.44900         7.95100         0.36700
O           8.69000         7.98200         1.58500
C           4.84000         4.12500         0.46500
C           4.77900         2.74700         1.10500
O           4.40400         1.75900         0.13500
H           4.90400         2.08100        -0.66900
C           3.81500         2.77300         2.28000
O           3.89500         1.43000         2.77900
H           3.45900         0.82100         2.11600
C           5.42600         6.50700         0.98100
O           4.31000         7.36100         0.69200
H           4.49400         8.01800        -0.03900
C           5.31400         5.09500         1.53500
O           4.51500         5.04800         2.72600
C           4.54300         3.70600         3.23400
O           3.70100         3.86700         4.38500
C           4.56100         3.67800         5.51800
C           4.48900         5.04000         6.19000
O           5.19700         5.91700         5.30300
H           4.84100         5.81100         4.37400
C           5.35600         5.16800         7.43200
O           5.12400         6.48300         7.95600
H           5.51600         7.22900         7.41800
C           3.88400         1.33300         6.15700
O           5.08700         0.56000         6.28400
H           4.88300        -0.33800         5.89600
C           4.05000         2.76900         6.62400
O           4.86800         2.73100         7.80300
C           4.79700         4.06800         8.32000
O           5.30200         3.87500         9.64900
C           4.44500         3.97400        10.79600
C           4.51200         2.58300        11.40500
O           4.32400         1.49900        10.48300
H           4.83100         1.67200         9.63900
C           3.75600         2.40800        12.71200
O           3.86400         1.08900        13.26800
H           3.45900         0.51000        12.56100
C           5.22500         6.24400        11.41300
O           4.14800         6.85500        10.68600
H           4.32600         6.73500         9.71000
C           5.09300         4.80700        11.89100
O           4.38000         4.72200        13.13300
C           4.44800         3.38500        13.64900
O           3.79000         3.34900        14.92300
C           4.58900         3.47400        16.10800
C           4.62900         4.89900        16.63800
O           5.18400         5.79700        15.66600
H           4.63800         5.70000        14.83400
C           5.45000         4.88300        17.91700
O           5.85700         6.13100        18.49500
H           6.81300         6.02900        18.77200
C           3.90500         1.19200        16.78700
O           5.08700         0.43200        16.49700
H           4.97600        -0.29700        15.82200
C           3.97000         2.64700        17.22300
O           4.72100         2.70400        18.44400
C           4.79100         4.02900        18.98900
O           5.59100         3.97300        20.17900
C           4.82200         3.91900        21.38900
C           4.56600         2.52100        21.92900
O           3.77500         1.75000        21.01300
H           4.03200         2.04400        20.09300
C           4.00400         2.40300        23.33700
O           4.07600         1.00300        23.64300
H           3.78800         0.40900        22.89200
C           5.39500         6.33000        21.99600
O           4.27000         7.16100        21.67700
H           4.61100         7.95800        21.17900
C           5.41300         4.86900        22.41700
O           4.69100         4.72300        23.64900
C           4.63800         3.42700        24.26300
O           3.83600         3.62700        25.43600
C           4.67000         3.59400        26.60300
C           4.80900         4.99900        27.16500
O           5.26600         6.00500        26.24900
H           4.99700         5.73200        25.32500
C           5.52800         5.12200        28.49900
O           5.60500         6.42200        29.10300
H           5.92100         7.18100        28.53400
C           3.83500         1.39200        27.39600
O           5.01900         0.66800        27.03100
H           4.79900         0.03000        26.29300
C           4.04500         2.85000        27.77100
O           4.80600         2.80600        28.98800
C           4.93300         4.14200        29.49600
O           5.56200         4.06100        30.78300
C           4.61900         3.96300        31.86100
C           4.50500         2.51600        32.31100
O           4.06100         1.49800        31.40300
H           4.29500         1.74000        30.46100
C           3.97600         2.44100        33.73400
O           4.22100         1.15200        34.31400
H           3.94900         0.40800        33.70300
C           5.38600         6.29900        32.44700
O           4.49600         7.25700        31.85600
H           5.02400         8.02800        31.50100
C           5.02100         4.92000        32.97100
O           4.18700         4.91400        34.13900
C           4.48900         3.58600        34.59200
O           3.89700         3.54100        35.89800
C           4.77600         3.70800        37.02000
C           4.70700         5.12400        37.56700
O           5.31800         6.02900        36.63500
H           4.73900         5.91300        35.82800
C           5.40600         5.23500        38.91200
O           5.30100         6.56400        39.44300
H           5.62000         7.16300        38.70900
C           4.19500         1.37000        37.63100
O           5.34400         0.51100        37.68300
H           5.14200        -0.40400        37.33300
C           4.29700         2.79900        38.14000
O           4.98200         2.91100        39.39600
C           4.85300         4.24100        39.91900
O           5.52400         4.06200        41.17500
C          10.30100        16.22900         2.74200
C           9.85000        17.62300         3.14700
O          10.44100        18.56300         2.23800
H          10.19400        18.27500         1.31200
C          10.27700        17.92200         4.57500
O           9.65200        19.16900         4.91000
H           9.95000        19.21300         5.86400
C          10.52700        13.91000         3.40400
O          10.55900        12.98900         2.30300
H          10.76200        12.05000         2.58200
C           9.76600        15.18900         3.71200
O          10.23300        15.58100         5.01100
C           9.83900        16.84800         5.55700
O          10.66600        16.90600         6.72800
C          10.06100        16.80500         8.02600
C          10.38500        15.43200         8.59200
O          10.06500        14.42400         7.62300
H          10.03400        14.81600         6.70300
C           9.61500        15.15400         9.87200
O           9.69900        13.77600        10.26300
H           9.24300        13.60800        11.13700
C           9.87300        19.30700         8.68900
O          10.47600        19.71300         7.45200
H          10.48900        20.71000         7.52500
C          10.28100        17.89200         9.06500
O           9.63000        17.53700        10.29400
C           9.99500        16.26100        10.84200
O           9.24400        16.28100        12.06500
C           9.98000        16.33700        13.29500
C           9.77400        17.72100        13.88900
O          10.12200        18.65900        12.86000
H           9.95900        18.19100        11.99200
C          10.37800        17.90300        15.27200
O           9.91400        19.10300        15.90800
H          10.37400        19.14300        16.79500
C           9.72500        13.89000        13.95200
O           9.36200        13.20200        12.74700
H           9.51800        12.22600        12.90200
C           9.38000        15.33600        14.26900
O          10.03200        15.49400        15.53700
C           9.88500        16.77600        16.16400
O          10.60600        16.71300        17.40300
C           9.78600        16.57600        18.57200
C          10.02600        15.14600        19.02900
O           9.37600        14.18000        18.19100
H           9.84500        14.23800        17.31000
C           9.56700        14.86800        20.45100
O           9.78200        13.53800        20.94700
H           9.37300        13.52000        21.85900
C          10.37800        18.91900        19.42700
O          11.00300        19.60200        18.33100
H          10.82000        20.57800        18.44800
C          10.49800        17.41600        19.62000
O           9.96200        17.24000        20.94000
C          10.24100        15.89300        21.34900
O           9.46100        15.82100        22.55100
C          10.15800        16.13200        23.76600
C           9.86600        17.58900        24.08700
O          10.31600        18.53400        23.10500
H          10.01700        18.07700        22.26700
C          10.34800        17.87300        25.50000
O           9.71400        18.99000        26.13900
H          10.01000        19.14800        27.08100
C           9.50400        13.73400        24.64700
O           9.02700        12.97700        23.52500
H           8.97600        11.99800        23.72400
C           9.53800        15.24200        24.83100
O          10.28500        15.43500        26.04000
C          10.01400        16.77000        26.49000
O          10.96200        16.88000        27.56200
C          10.52500        16.62300        28.90500
C          11.00100        15.26600        29.39700
O          10.79700        14.17600        28.48600
H          10.85200        14.57200        27.56900
C          10.36000        14.88200        30.72100
O          10.70700        13.61600        31.30100
H          10.35500        13.62900        32.23700
C          10.68300        19.11800        29.77300
O          10.98400        19.59000        28.45200
H          11.26100        20.55100        28.46300
C          10.97200        17.63600        29.94600
O          10.32400        17.41500        31.20700
C          10.58100        16.07100        31.64100
O           9.87100        15.88000        32.87300
C          10.48400        16.23000        34.12300
C          10.19500        17.65600        34.56200
O          10.78400        18.64400        33.70400
H          10.55400        18.33300        32.78100
C          10.68900        17.90400        35.97800
O          10.20600        19.18600        36.40600
H          10.26800        19.17800        37.40500
C          10.14000        13.92600        35.04900
O           9.57800        13.37700        33.84800
H           9.56300        12.40100        34.06700
C           9.87300        15.40900        35.24600
O          10.42800        15.54300        36.56300
C          10.14500        16.89000        36.97100
O          10.94200        17.04100        38.15500
C          10.21800        16.73900        39.35700
C          10.65500        15.35200        39.80000
O          10.33000        14.24800        38.94200
H          10.32200        14.48700        37.97100
C          10.18500        15.05400        41.21400
O          10.75900        13.82000        41.66900
H          10.44500        13.62600        42.59900
C          10.20900        19.04500        40.17800
O          10.73100        19.74100        39.03700
H          10.84800        20.69400        39.31700
C          10.59000        17.63600        -1.43400
O          10.01000        17.18900        -0.20000
C          10.74800        16.04800         0.25900
O           9.88200        15.94700         1.39900
C           5.81900        12.15200         0.32700
C           5.65900        10.70000        42.77300
O           5.13200         9.74600        41.84000
H           5.27300         9.86300        40.85700
C           4.89600        10.69400         2.11600
O           4.82700         9.42700         2.78700
H           4.51000         8.72200         2.15200
C           6.62400        14.44000         1.03600
O           5.40400        15.18800         0.94000
H           5.53900        16.09700         0.54600
C           6.38700        12.99800         1.45500
O           5.58600        12.93000         2.64400
C           5.40300        11.62300         3.20700
O           4.62100        11.92900         4.37100
C           5.33600        11.85000         5.61200
C           5.25800        13.25200         6.19400
O           5.83600        14.20300         5.28800
H           5.75800        13.82400         4.36600
C           5.65000        13.39900         7.65500
O           5.28300        14.68700         8.17000
H           5.90100        15.37600         7.79100
C           4.45500         9.41000         6.13200
O           5.62200         8.61400         5.88000
H           5.45100         8.09200         5.04400
C           4.71700        10.84200         6.56700
O           5.34800        10.93700         7.85200
C           5.15700        12.21600         8.47400
O           5.99600        12.20500         9.63800
C           5.12900        12.09100        10.77500
C           4.85800        10.66700        11.23400
O           4.21700         9.86300        10.23400
H           4.77500         9.85500         9.40400
C           4.01500        10.50400        12.48800
O           4.26000         9.12800        12.81500
H           3.96200         8.67100        11.97700
C           6.34300        14.00100        11.81800
O           5.33700        14.95200        11.44000
H           5.77800        15.66500        10.89600
C           5.81500        12.59200        12.03600
O           4.96300        12.57400        13.19000
C           4.67900        11.24200        13.64000
O           4.11900        11.30200        14.96000
C           4.95000        11.49200        16.11500
C           5.07400        12.95300        16.51800
O           5.90800        13.75100        15.66600
H           5.57400        13.34300        14.81600
C           5.62800        13.28600        17.89400
O           5.15800        14.57700        18.30800
H           5.66400        15.33100        17.88900
C           4.55400         9.23800        16.97000
O           5.74300         8.62100        16.45600
H           5.54600         7.66200        16.25300
C           4.55700        10.70800        17.35600
O           5.49100        10.99300        18.40700
C           5.25700        12.28800        18.97900
O           6.02400        12.18400        20.18800
C           5.18600        11.97300        21.33400
C           5.25800        10.53500        21.82000
O           4.94400         9.52600        20.84800
H           5.34200         9.94600        20.03300
C           4.64200        10.30500        23.19000
O           4.66300         9.02000        23.82900
H           4.21600         8.31100        23.28400
C           5.70900        14.41100        22.05000
O           4.56200        15.26500        21.92900
H           4.94200        16.05900        21.45400
C           5.69800        12.93100        22.39700
O           5.02100        12.64700        23.63000
C           5.24400        11.32600        24.14300
O           4.53500        11.54700        25.37000
C           5.34500        11.66300        26.54900
C           5.34200        13.06900        27.12700
O           5.78800        13.93900        26.07700
H           5.57000        13.43400        25.24100
C           6.27900        13.26200        28.30800
O           6.44100        14.61500        28.75700
H           6.58300        15.23900        27.98900
C           4.52700         9.47100        27.38900
O           5.60200         8.56800        27.09100
H           5.28300         7.89300        26.42600
C           4.83300        10.91100        27.76700
O           5.57300        11.08400        28.98400
C           5.61700        12.45300        29.41200
O           6.40500        12.56200        30.60600
C           5.69500        12.16800        31.78900
C           5.81900        10.73600        32.28400
O           5.95900         9.68100        31.32100
H           6.34600         9.92900        30.43200
C           4.89900        10.62100        33.48800
O           4.58400         9.29100        33.92400
H           4.85200         8.61400        33.23700
C           6.44100        14.44100        32.68200
O           5.27500        15.26700        32.55100
H           5.41200        15.71700        31.66900
C           6.23900        12.96100        32.96600
O           5.62100        12.77500        34.24800
C           5.54200        11.39400        34.62800
O           4.83200        11.54100        35.86700
C           5.66300        11.60100        37.03500
C           5.77800        13.01000        37.59500
O           6.49100        13.83200        36.66000
H           6.04600        13.60400        35.79400
C           6.36000        13.20700        38.98500
O           6.27400        14.58800        39.36600
H           6.61400        15.08500        38.56800
C           5.11300         9.32700        37.82600
O           6.22200         8.41600        37.82600
H           6.08000         7.65100        37.19900
C           4.96000        10.80900        38.12600
O           5.44300        10.93400        39.47100
C           5.82000        12.21300        40.00100
O           6.67900        12.15000        41.14900
C          10.74100        24.27000         2.63900
C          10.33200        25.65100         3.12400
O          10.91500        26.66500         2.29200
H          10.92900        26.38500         1.33200
C          10.72100        26.10700         4.52100
O           9.89100        27.21300         4.90300
H          10.22200        27.70500         5.70800
C          10.58700        21.91600         3.35200
O          10.31200        21.27600         2.09700
H          10.37500        20.31700         2.37200
C          10.27900        23.34900         3.75700
O          10.91900        23.66300         5.00200
C          10.40600        24.93200         5.43200
O          11.12000        25.16400         6.65500
C          10.55000        24.80900         7.92300
C          10.86900        23.38700         8.35600
O          10.53800        22.40700         7.36100
H          10.71500        22.71800         6.42700
C          10.53500        23.14400         9.81900
O          11.11000        21.93500        10.33600
H          11.02500        21.69400        11.30200
C          10.86500        27.27700         8.59300
O          11.42700        27.97000         7.47000
H          11.18500        28.92700         7.62400
C          11.04900        25.81100         8.95100
O          10.57400        25.46100        10.25900
C          11.10700        24.21500        10.73400
O          10.24500        24.12800        11.87800
C          10.61900        24.26000        13.25700
C          10.33100        25.66700        13.75600
O          10.73800        26.67900        12.82400
H          10.47600        26.34700        11.91800
C          10.84400        26.03600        15.13900
O          10.19700        27.23300        15.59500
H          10.42700        27.38300        16.55700
C           9.94300        21.86800        14.02700
O          10.82000        21.18100        13.12300
H          10.74900        20.18800        13.22100
C          10.09400        23.34500        14.35200
O          10.97100        23.55400        15.46800
C          10.56800        24.82100        16.00900
O          11.47300        24.84700        17.12200
C          10.83900        24.58100        18.38100
C          11.30600        23.22900        18.89700
O          10.95400        22.27300        17.88600
H          11.24200        22.66600        17.01300
C          10.76800        22.92800        20.28600
O          11.14000        21.64000        20.79800
H          10.83400        21.48000        21.73700
C          10.92800        27.07400        19.16500
O          11.67400        27.71100        18.11700
H          11.65300        28.69400        18.29600
C          11.22700        25.60800        19.43100
O          10.61100        25.30600        20.69200
C          11.08700        24.06800        21.23900
O          10.32500        23.77700        22.42000
C          10.98900        24.15600        23.63500
C          10.62500        25.55300        24.11000
O          10.88100        26.67900        23.25700
H          10.72800        26.50400        22.28500
C          11.07600        25.90400        25.51800
O          10.32600        26.99500        26.07200
H          10.76200        27.28200        26.92500
C          11.02900        21.71000        24.26700
O           9.97700        21.09500        23.50900
H          10.07700        20.10600        23.39700
C          10.58900        23.11000        24.66300
O          11.07400        23.45600        25.96800
C          10.85800        24.76900        26.50600
O          11.77400        24.96800        27.59200
C          11.17300        24.65000        28.85600
C          11.76100        23.35600        29.39400
O          11.54200        22.31800        28.42700
H          11.34800        22.76100        27.55100
C          11.20400        23.02200        30.76800
O          11.62400        21.73600        31.24700
H          11.40500        21.65900        32.22000
C          10.86100        27.12000        29.49300
O          11.46000        27.72600        28.33800
H          11.29600        28.71000        28.27300
C          11.42600        25.75800        29.86500
O          11.09700        25.42700        31.22200
C          11.52800        24.15600        31.72700
O          10.62500        24.14500        32.84200
C          11.09900        24.39300        34.17400
C          10.58300        25.76700        34.56900
O          10.67200        26.82300        33.60200
H          10.30800        26.45100        32.74800
C          11.15000        26.19500        35.91300
O          10.85500        27.50900        36.40900
H          11.31400        27.54000        37.29600
C          11.21300        22.05200        34.90700
O          10.78000        21.30900        33.75800
H          10.97500        20.33600        33.87800
C          10.55700        23.39500        35.18500
O          10.96200        23.79900        36.50100
C          10.75900        25.14900        36.94300
O          11.40000        25.32400        38.21500
C          10.77200        24.80800        39.39700
C          11.22500        23.44400        39.89200
O          11.41000        22.54700        38.78600
H          11.46600        23.05900        37.92900
C          10.61800        23.05700        41.23100
O          11.26600        21.82900        41.59300
H          10.91700        21.56600        42.49300
C          10.83500        27.19700        40.19100
O          11.56000        27.99100        39.24100
H          11.37500        28.96400        39.38100
C          11.28100        25.76900        40.45800
O          10.65600        25.44600        41.70800
C          11.00200        24.14900        42.21500
O          10.14800        23.92800        43.34700
C           6.24800        20.44000         0.28000
C           6.23900        18.95800        42.65900
O           5.75200        18.03400        41.67500
H           6.18100        18.20800        40.78900
C           5.44900        18.70300         1.95700
O           5.91800        17.43400         2.43500
H           5.36900        16.69200         2.05100
C           6.90400        22.68400         1.08300
O           5.81400        23.61700         1.10100
H           6.16700        24.53700         0.93100
C           6.73500        21.22700         1.48500
O           6.00100        21.00400         2.69800
C           5.89900        19.62400         3.07900
O           5.08800        19.51100         4.25800
C           5.76700        19.82800         5.48100