# freq=raman b3lyp/6-31+g(d,p) geom=connectivity

500 8000.com

0 1
 O                  8.81900000    6.03300000   22.26300000
 C                  9.48900000    6.38500000   23.48200000
 C                  8.91300000    7.66300000   24.07200000
 O                  9.14800000    8.77100000   23.19100000
 H                  9.02900000    8.40800000   22.26700000
 C                  9.44900000    8.07100000   25.43400000
 O                  8.99300000    9.26400000   26.08800000
 H                  9.27100000   10.01900000   25.49300000
 C                  9.52700000    3.79500000   24.17800000
 O                  9.09700000    2.80200000   25.12000000
 H                  9.01800000    1.90500000   24.68600000
 C                  9.32600000    5.26700000   24.50000000
 O                  9.92800000    5.63700000   25.74800000
 C                  9.39600000    6.83900000   26.32300000
 O                 10.20700000    6.86900000   27.50600000
 C                  9.55700000    6.49600000   28.73000000
 C                  9.53200000    4.99800000   28.98100000
 O                  8.99000000    4.14000000   27.96600000
 H                  9.28200000    4.21600000   27.01300000
 C                  8.74900000    4.71100000   30.25200000
 O                  8.89800000    3.28600000   30.33100000
 H                  8.80400000    3.08200000   29.35600000
 C                 10.31400000    8.52900000   29.79500000
 O                 10.98200000    9.39000000   30.72900000
 H                 10.66100000   10.31400000   30.52200000
 C                 10.30100000    7.01700000   29.94900000
 O                  9.78900000    6.68400000   31.24700000
 C                  9.49600000    5.29300000   31.44200000
 O                  8.80700000    5.01900000   32.67000000
 H                  9.44716180    4.86320662   33.36822725
 H                 10.43603848    4.78475250   31.49596429
 H                  7.72688505    5.02261171   30.19650971
 H                 10.54259295    4.68957008   29.14973909
 H                  8.55652031    6.87538186   28.73312876
 H                 11.31083626    6.66759302   29.89381406
 H                  9.29144544    8.84278743   29.76637100
 H                 10.73484080    8.73532338   28.83311452
 H                  9.46993737    5.83724606   21.58509076
 H                 10.57346493    3.64514001   24.01261215
 H                  9.02165641    3.59886686   23.25547106
 H                  8.27844178    5.30779701   24.71414338
 H                 10.53019879    6.52871608   23.28162346
 H                  7.85483228    7.53252617   24.16231976
 H                 10.49145100    8.24640899   25.26838721
 H                  8.37904116    6.66493662   26.60654303

 1 2 1.0 38 1.0
 2 3 1.0 12 1.0 42 1.0
 3 4 1.0 6 1.0 43 1.0
 4 5 1.0
 5
 6 7 1.0 14 1.0 44 1.0
 7 8 1.0
 8
 9 10 1.0 12 1.0 39 1.0 40 1.0
 10 11 1.0
 11
 12 13 1.0 41 1.0
 13 14 1.0
 14 15 1.0 45 1.0
 15 16 1.0
 16 17 1.0 26 1.0 34 1.0
 17 18 1.0 20 1.0 33 1.0
 18 19 1.0
 19
 20 21 1.0 28 1.0 32 1.0
 21 22 1.0
 22
 23 24 1.0 26 1.0 36 1.0 37 1.0
 24 25 1.0
 25
 26 27 1.0 35 1.0
 27 28 1.0
 28 29 1.0 31 1.0
 29 30 1.0
 30
 31
 32
 33
 34
 35
 36
 37
 38
 39
 40
 41
 42
 43
 44
 45

