# freq=raman b3lyp/6-31+g(2d,p) geom=connectivity

423 7000.com

0 1
C           8.11200         7.96400        24.22800
C           7.43600         9.23000        24.72900
O           7.64800        10.24800        23.74000
H           7.30100         9.85500        22.88900
C           7.97400         9.69300        26.07300
O           7.45300        10.94200        26.55200
H           8.01500        11.19400        27.33900
C           8.48400         5.52500        24.87100
O           8.15700         4.81900        23.66500
H           8.35900         3.85000        23.80900
C           7.94100         6.88400        25.28300
O           8.48600         7.33200        26.53300
C           7.79500         8.50100        26.99800
O           8.64100         8.68100        28.14400
C           8.07700         8.28500        29.40200
C           8.59000         6.93200        29.86900
O           8.26100         5.94800        28.87800
H           8.45500         6.30700        27.96500
C           8.17300         6.61700        31.29600
O           8.88900         5.50100        31.84400
H           8.54100         5.26900        32.75200
C           7.83300        10.75300        30.08800
O           8.41700        11.62000        29.10600
H           8.18400        12.58100        29.25800
C           8.43900         9.39000        30.38100
O           7.84700         9.07000        31.64900
C           8.36300         7.84000        32.17800
O           7.63200         7.62100        33.39400
C           8.15600         8.03900        34.66300

