# freq=raman b3lyp/6-31+g(d,p) geom=connectivity

350 8000.com

0 1
O           7.81800         7.79600        22.77500
C           8.34300         8.04000        24.08800
C           7.72400         9.34400        24.56500
O           7.91000        10.42500        23.64000
H           7.65500        10.10800        22.72600
C           8.19200         9.73000        25.95900
O           7.52700        10.83900        26.58000
H           7.99100        11.16000        27.40600
C           8.73900         5.61300        24.71200
O           8.28600         4.98700        23.50200
H           8.34100         4.00900        23.69900
C           8.04600         6.91800        25.06900
O           8.51900         7.25400        26.38100
C           8.08200         8.52700        26.88100
O           8.99300         8.72900        27.97100
C           8.37300         8.60000        29.25900
C           8.99500         7.35500        29.87100
O           9.04900         6.30300        28.89700
H           9.41800         6.51200        27.99200
C           8.25900         6.99800        31.15300
O           8.53300         5.68100        31.65100
H           8.12800         5.44800        32.53600
C           8.13200        11.20500        30.08200
O           8.60300        11.76400        28.84700
H           8.32500        12.71200        29.00400
C           8.61400         9.76800        30.20000
O           7.94700         9.34600        31.39900
C           8.44000         8.18500        32.08400
O           7.65800         7.92000        33.25700

