# freq=raman b3lyp/6-31+g(d,p) geom=connectivity

300 6000.com

0 1
 O                  7.72300000    7.54800000   12.04200000
 C                  8.19000000    7.92700000   13.34500000
 C                  7.73200000    9.27800000   13.87000000
 O                  7.92700000   10.31200000   12.89400000
 H                  7.79400000    9.99900000   11.95400000
 C                  8.36100000    9.66900000   15.19700000
 O                  7.81700000   10.80200000   15.88900000
 H                  8.36900000   10.96900000   16.70700000
 C                  8.41500000    5.50400000   14.12500000
 O                  8.11500000    4.76000000   12.93600000
 H                  8.15000000    3.78800000   13.16800000
 C                  7.90900000    6.90400000   14.43300000
 O                  8.59000000    7.30700000   15.63100000
 C                  8.14900000    8.54800000   16.20100000
 O                  8.97900000    8.63200000   17.36800000
 C                  8.38200000    8.34400000   18.64100000
 C                  8.98300000    7.01300000   19.06500000
 O                  8.63700000    5.88900000   18.24300000
 H                  8.81600000    6.13300000   17.29000000
 C                  8.52700000    6.63400000   20.46500000
 O                  9.12600000    5.49900000   21.10700000
 H                  8.57800000    5.26600000   21.91100000
 C                  8.22500000   10.80100000   19.44500000
 O                  8.70700000   11.50300000   18.29000000
 H                  8.36900000   12.43900000   18.39200000
 C                  8.66800000    9.37400000   19.72100000
 O                  8.10200000    8.93900000   20.96600000
 C                  8.65000000    7.73000000   21.51000000
 O                  7.66700000    7.63500000   22.55100000
 H                  8.47470334    7.38123126   11.46864995
 H                  8.10713671    7.55746430   23.40062809
 H                  9.64468500    7.85788755   21.88302351
 H                  7.48337675    6.41321122   20.38131707
 H                 10.04842587    7.11165819   19.07085528
 H                  7.32408805    8.23596822   18.52246123
 H                  9.72978053    9.39915903   19.85095820
 H                  8.49266887   11.38411187   20.30129080
 H                  7.15678407   10.79196295   19.38390118
 H                  7.11791622    8.48412248   16.47972192
 H                  9.41102448    9.81775809   15.05480429
 H                  6.67781087    9.20329058   14.03734332
 H                  9.25516969    7.98843459   13.26413392
 H                  6.85610743    6.86651762   14.61984837
 H                  8.09905006    4.89076868   14.94293825
 H                  9.48236536    5.55959671   14.17540029

 1 2 1.0 30 1.0
 2 3 1.0 12 1.0 42 1.0
 3 4 1.0 6 1.0 41 1.0
 4 5 1.0
 5
 6 7 1.0 14 1.0 40 1.0
 7 8 1.0
 8
 9 10 1.0 12 1.0 44 1.0 45 1.0
 10 11 1.0
 11
 12 13 1.0 43 1.0
 13 14 1.0
 14 15 1.0 39 1.0
 15 16 1.0
 16 17 1.0 26 1.0 35 1.0
 17 18 1.0 20 1.0 34 1.0
 18 19 1.0
 19
 20 21 1.0 28 1.0 33 1.0
 21 22 1.0
 22
 23 24 1.0 26 1.0 37 1.0 38 1.0
 24 25 1.0
 25
 26 27 1.0 36 1.0
 27 28 1.0
 28 29 1.0 32 1.0
 29 31 1.0
 30
 31
 32
 33
 34
 35
 36
 37
 38
 39
 40
 41
 42
 43
 44
 45

